*Heading
** Job name: Job-1 Model name: Model-1
** Generated by: Abaqus/CAE 2021
*Preprint, echo=NO, model=NO, history=NO, contact=NO
**
** PARTS
**
*Part, name=Part-1
*Node
      1,          30.,          20.,           0.
      2,          30.,          20.,           1.
      3,          30.,          20.,           2.
      4,          30.,          20.,           3.
      5,          30.,          20.,           4.
      6,          30.,          20.,           5.
      7,          30.,          20.,           6.
      8,          30.,          20.,           7.
      9,          30.,          20.,           8.
     10,          30.,          20.,           9.
     11,          30.,          20.,          10.
     12,          30.,          19.,           0.
     13,          30.,          19.,           1.
     14,          30.,          19.,           2.
     15,          30.,          19.,           3.
     16,          30.,          19.,           4.
     17,          30.,          19.,           5.
     18,          30.,          19.,           6.
     19,          30.,          19.,           7.
     20,          30.,          19.,           8.
     21,          30.,          19.,           9.
     22,          30.,          19.,          10.
     23,          30.,          18.,           0.
     24,          30.,          18.,           1.
     25,          30.,          18.,           2.
     26,          30.,          18.,           3.
     27,          30.,          18.,           4.
     28,          30.,          18.,           5.
     29,          30.,          18.,           6.
     30,          30.,          18.,           7.
     31,          30.,          18.,           8.
     32,          30.,          18.,           9.
     33,          30.,          18.,          10.
     34,          30.,          17.,           0.
     35,          30.,          17.,           1.
     36,          30.,          17.,           2.
     37,          30.,          17.,           3.
     38,          30.,          17.,           4.
     39,          30.,          17.,           5.
     40,          30.,          17.,           6.
     41,          30.,          17.,           7.
     42,          30.,          17.,           8.
     43,          30.,          17.,           9.
     44,          30.,          17.,          10.
     45,          30.,          16.,           0.
     46,          30.,          16.,           1.
     47,          30.,          16.,           2.
     48,          30.,          16.,           3.
     49,          30.,          16.,           4.
     50,          30.,          16.,           5.
     51,          30.,          16.,           6.
     52,          30.,          16.,           7.
     53,          30.,          16.,           8.
     54,          30.,          16.,           9.
     55,          30.,          16.,          10.
     56,          30.,          15.,           0.
     57,          30.,          15.,           1.
     58,          30.,          15.,           2.
     59,          30.,          15.,           3.
     60,          30.,          15.,           4.
     61,          30.,          15.,           5.
     62,          30.,          15.,           6.
     63,          30.,          15.,           7.
     64,          30.,          15.,           8.
     65,          30.,          15.,           9.
     66,          30.,          15.,          10.
     67,          30.,          14.,           0.
     68,          30.,          14.,           1.
     69,          30.,          14.,           2.
     70,          30.,          14.,           3.
     71,          30.,          14.,           4.
     72,          30.,          14.,           5.
     73,          30.,          14.,           6.
     74,          30.,          14.,           7.
     75,          30.,          14.,           8.
     76,          30.,          14.,           9.
     77,          30.,          14.,          10.
     78,          30.,          13.,           0.
     79,          30.,          13.,           1.
     80,          30.,          13.,           2.
     81,          30.,          13.,           3.
     82,          30.,          13.,           4.
     83,          30.,          13.,           5.
     84,          30.,          13.,           6.
     85,          30.,          13.,           7.
     86,          30.,          13.,           8.
     87,          30.,          13.,           9.
     88,          30.,          13.,          10.
     89,          30.,          12.,           0.
     90,          30.,          12.,           1.
     91,          30.,          12.,           2.
     92,          30.,          12.,           3.
     93,          30.,          12.,           4.
     94,          30.,          12.,           5.
     95,          30.,          12.,           6.
     96,          30.,          12.,           7.
     97,          30.,          12.,           8.
     98,          30.,          12.,           9.
     99,          30.,          12.,          10.
    100,          30.,          11.,           0.
    101,          30.,          11.,           1.
    102,          30.,          11.,           2.
    103,          30.,          11.,           3.
    104,          30.,          11.,           4.
    105,          30.,          11.,           5.
    106,          30.,          11.,           6.
    107,          30.,          11.,           7.
    108,          30.,          11.,           8.
    109,          30.,          11.,           9.
    110,          30.,          11.,          10.
    111,          30.,          10.,           0.
    112,          30.,          10.,           1.
    113,          30.,          10.,           2.
    114,          30.,          10.,           3.
    115,          30.,          10.,           4.
    116,          30.,          10.,           5.
    117,          30.,          10.,           6.
    118,          30.,          10.,           7.
    119,          30.,          10.,           8.
    120,          30.,          10.,           9.
    121,          30.,          10.,          10.
    122,          30.,           9.,           0.
    123,          30.,           9.,           1.
    124,          30.,           9.,           2.
    125,          30.,           9.,           3.
    126,          30.,           9.,           4.
    127,          30.,           9.,           5.
    128,          30.,           9.,           6.
    129,          30.,           9.,           7.
    130,          30.,           9.,           8.
    131,          30.,           9.,           9.
    132,          30.,           9.,          10.
    133,          30.,           8.,           0.
    134,          30.,           8.,           1.
    135,          30.,           8.,           2.
    136,          30.,           8.,           3.
    137,          30.,           8.,           4.
    138,          30.,           8.,           5.
    139,          30.,           8.,           6.
    140,          30.,           8.,           7.
    141,          30.,           8.,           8.
    142,          30.,           8.,           9.
    143,          30.,           8.,          10.
    144,          30.,           7.,           0.
    145,          30.,           7.,           1.
    146,          30.,           7.,           2.
    147,          30.,           7.,           3.
    148,          30.,           7.,           4.
    149,          30.,           7.,           5.
    150,          30.,           7.,           6.
    151,          30.,           7.,           7.
    152,          30.,           7.,           8.
    153,          30.,           7.,           9.
    154,          30.,           7.,          10.
    155,          30.,           6.,           0.
    156,          30.,           6.,           1.
    157,          30.,           6.,           2.
    158,          30.,           6.,           3.
    159,          30.,           6.,           4.
    160,          30.,           6.,           5.
    161,          30.,           6.,           6.
    162,          30.,           6.,           7.
    163,          30.,           6.,           8.
    164,          30.,           6.,           9.
    165,          30.,           6.,          10.
    166,          30.,           5.,           0.
    167,          30.,           5.,           1.
    168,          30.,           5.,           2.
    169,          30.,           5.,           3.
    170,          30.,           5.,           4.
    171,          30.,           5.,           5.
    172,          30.,           5.,           6.
    173,          30.,           5.,           7.
    174,          30.,           5.,           8.
    175,          30.,           5.,           9.
    176,          30.,           5.,          10.
    177,          30.,           4.,           0.
    178,          30.,           4.,           1.
    179,          30.,           4.,           2.
    180,          30.,           4.,           3.
    181,          30.,           4.,           4.
    182,          30.,           4.,           5.
    183,          30.,           4.,           6.
    184,          30.,           4.,           7.
    185,          30.,           4.,           8.
    186,          30.,           4.,           9.
    187,          30.,           4.,          10.
    188,          30.,           3.,           0.
    189,          30.,           3.,           1.
    190,          30.,           3.,           2.
    191,          30.,           3.,           3.
    192,          30.,           3.,           4.
    193,          30.,           3.,           5.
    194,          30.,           3.,           6.
    195,          30.,           3.,           7.
    196,          30.,           3.,           8.
    197,          30.,           3.,           9.
    198,          30.,           3.,          10.
    199,          30.,           2.,           0.
    200,          30.,           2.,           1.
    201,          30.,           2.,           2.
    202,          30.,           2.,           3.
    203,          30.,           2.,           4.
    204,          30.,           2.,           5.
    205,          30.,           2.,           6.
    206,          30.,           2.,           7.
    207,          30.,           2.,           8.
    208,          30.,           2.,           9.
    209,          30.,           2.,          10.
    210,          30.,           1.,           0.
    211,          30.,           1.,           1.
    212,          30.,           1.,           2.
    213,          30.,           1.,           3.
    214,          30.,           1.,           4.
    215,          30.,           1.,           5.
    216,          30.,           1.,           6.
    217,          30.,           1.,           7.
    218,          30.,           1.,           8.
    219,          30.,           1.,           9.
    220,          30.,           1.,          10.
    221,          30.,           0.,           0.
    222,          30.,           0.,           1.
    223,          30.,           0.,           2.
    224,          30.,           0.,           3.
    225,          30.,           0.,           4.
    226,          30.,           0.,           5.
    227,          30.,           0.,           6.
    228,          30.,           0.,           7.
    229,          30.,           0.,           8.
    230,          30.,           0.,           9.
    231,          30.,           0.,          10.
    232,          29.,          20.,           0.
    233,          29.,          20.,           1.
    234,          29.,          20.,           2.
    235,          29.,          20.,           3.
    236,          29.,          20.,           4.
    237,          29.,          20.,           5.
    238,          29.,          20.,           6.
    239,          29.,          20.,           7.
    240,          29.,          20.,           8.
    241,          29.,          20.,           9.
    242,          29.,          20.,          10.
    243,          29.,          19.,           0.
    244,          29.,          19.,           1.
    245,          29.,          19.,           2.
    246,          29.,          19.,           3.
    247,          29.,          19.,           4.
    248,          29.,          19.,           5.
    249,          29.,          19.,           6.
    250,          29.,          19.,           7.
    251,          29.,          19.,           8.
    252,          29.,          19.,           9.
    253,          29.,          19.,          10.
    254,          29.,          18.,           0.
    255,          29.,          18.,           1.
    256,          29.,          18.,           2.
    257,          29.,          18.,           3.
    258,          29.,          18.,           4.
    259,          29.,          18.,           5.
    260,          29.,          18.,           6.
    261,          29.,          18.,           7.
    262,          29.,          18.,           8.
    263,          29.,          18.,           9.
    264,          29.,          18.,          10.
    265,          29.,          17.,           0.
    266,          29.,          17.,           1.
    267,          29.,          17.,           2.
    268,          29.,          17.,           3.
    269,          29.,          17.,           4.
    270,          29.,          17.,           5.
    271,          29.,          17.,           6.
    272,          29.,          17.,           7.
    273,          29.,          17.,           8.
    274,          29.,          17.,           9.
    275,          29.,          17.,          10.
    276,          29.,          16.,           0.
    277,          29.,          16.,           1.
    278,          29.,          16.,           2.
    279,          29.,          16.,           3.
    280,          29.,          16.,           4.
    281,          29.,          16.,           5.
    282,          29.,          16.,           6.
    283,          29.,          16.,           7.
    284,          29.,          16.,           8.
    285,          29.,          16.,           9.
    286,          29.,          16.,          10.
    287,          29.,          15.,           0.
    288,          29.,          15.,           1.
    289,          29.,          15.,           2.
    290,          29.,          15.,           3.
    291,          29.,          15.,           4.
    292,          29.,          15.,           5.
    293,          29.,          15.,           6.
    294,          29.,          15.,           7.
    295,          29.,          15.,           8.
    296,          29.,          15.,           9.
    297,          29.,          15.,          10.
    298,          29.,          14.,           0.
    299,          29.,          14.,           1.
    300,          29.,          14.,           2.
    301,          29.,          14.,           3.
    302,          29.,          14.,           4.
    303,          29.,          14.,           5.
    304,          29.,          14.,           6.
    305,          29.,          14.,           7.
    306,          29.,          14.,           8.
    307,          29.,          14.,           9.
    308,          29.,          14.,          10.
    309,          29.,          13.,           0.
    310,          29.,          13.,           1.
    311,          29.,          13.,           2.
    312,          29.,          13.,           3.
    313,          29.,          13.,           4.
    314,          29.,          13.,           5.
    315,          29.,          13.,           6.
    316,          29.,          13.,           7.
    317,          29.,          13.,           8.
    318,          29.,          13.,           9.
    319,          29.,          13.,          10.
    320,          29.,          12.,           0.
    321,          29.,          12.,           1.
    322,          29.,          12.,           2.
    323,          29.,          12.,           3.
    324,          29.,          12.,           4.
    325,          29.,          12.,           5.
    326,          29.,          12.,           6.
    327,          29.,          12.,           7.
    328,          29.,          12.,           8.
    329,          29.,          12.,           9.
    330,          29.,          12.,          10.
    331,          29.,          11.,           0.
    332,          29.,          11.,           1.
    333,          29.,          11.,           2.
    334,          29.,          11.,           3.
    335,          29.,          11.,           4.
    336,          29.,          11.,           5.
    337,          29.,          11.,           6.
    338,          29.,          11.,           7.
    339,          29.,          11.,           8.
    340,          29.,          11.,           9.
    341,          29.,          11.,          10.
    342,          29.,          10.,           0.
    343,          29.,          10.,           1.
    344,          29.,          10.,           2.
    345,          29.,          10.,           3.
    346,          29.,          10.,           4.
    347,          29.,          10.,           5.
    348,          29.,          10.,           6.
    349,          29.,          10.,           7.
    350,          29.,          10.,           8.
    351,          29.,          10.,           9.
    352,          29.,          10.,          10.
    353,          29.,           9.,           0.
    354,          29.,           9.,           1.
    355,          29.,           9.,           2.
    356,          29.,           9.,           3.
    357,          29.,           9.,           4.
    358,          29.,           9.,           5.
    359,          29.,           9.,           6.
    360,          29.,           9.,           7.
    361,          29.,           9.,           8.
    362,          29.,           9.,           9.
    363,          29.,           9.,          10.
    364,          29.,           8.,           0.
    365,          29.,           8.,           1.
    366,          29.,           8.,           2.
    367,          29.,           8.,           3.
    368,          29.,           8.,           4.
    369,          29.,           8.,           5.
    370,          29.,           8.,           6.
    371,          29.,           8.,           7.
    372,          29.,           8.,           8.
    373,          29.,           8.,           9.
    374,          29.,           8.,          10.
    375,          29.,           7.,           0.
    376,          29.,           7.,           1.
    377,          29.,           7.,           2.
    378,          29.,           7.,           3.
    379,          29.,           7.,           4.
    380,          29.,           7.,           5.
    381,          29.,           7.,           6.
    382,          29.,           7.,           7.
    383,          29.,           7.,           8.
    384,          29.,           7.,           9.
    385,          29.,           7.,          10.
    386,          29.,           6.,           0.
    387,          29.,           6.,           1.
    388,          29.,           6.,           2.
    389,          29.,           6.,           3.
    390,          29.,           6.,           4.
    391,          29.,           6.,           5.
    392,          29.,           6.,           6.
    393,          29.,           6.,           7.
    394,          29.,           6.,           8.
    395,          29.,           6.,           9.
    396,          29.,           6.,          10.
    397,          29.,           5.,           0.
    398,          29.,           5.,           1.
    399,          29.,           5.,           2.
    400,          29.,           5.,           3.
    401,          29.,           5.,           4.
    402,          29.,           5.,           5.
    403,          29.,           5.,           6.
    404,          29.,           5.,           7.
    405,          29.,           5.,           8.
    406,          29.,           5.,           9.
    407,          29.,           5.,          10.
    408,          29.,           4.,           0.
    409,          29.,           4.,           1.
    410,          29.,           4.,           2.
    411,          29.,           4.,           3.
    412,          29.,           4.,           4.
    413,          29.,           4.,           5.
    414,          29.,           4.,           6.
    415,          29.,           4.,           7.
    416,          29.,           4.,           8.
    417,          29.,           4.,           9.
    418,          29.,           4.,          10.
    419,          29.,           3.,           0.
    420,          29.,           3.,           1.
    421,          29.,           3.,           2.
    422,          29.,           3.,           3.
    423,          29.,           3.,           4.
    424,          29.,           3.,           5.
    425,          29.,           3.,           6.
    426,          29.,           3.,           7.
    427,          29.,           3.,           8.
    428,          29.,           3.,           9.
    429,          29.,           3.,          10.
    430,          29.,           2.,           0.
    431,          29.,           2.,           1.
    432,          29.,           2.,           2.
    433,          29.,           2.,           3.
    434,          29.,           2.,           4.
    435,          29.,           2.,           5.
    436,          29.,           2.,           6.
    437,          29.,           2.,           7.
    438,          29.,           2.,           8.
    439,          29.,           2.,           9.
    440,          29.,           2.,          10.
    441,          29.,           1.,           0.
    442,          29.,           1.,           1.
    443,          29.,           1.,           2.
    444,          29.,           1.,           3.
    445,          29.,           1.,           4.
    446,          29.,           1.,           5.
    447,          29.,           1.,           6.
    448,          29.,           1.,           7.
    449,          29.,           1.,           8.
    450,          29.,           1.,           9.
    451,          29.,           1.,          10.
    452,          29.,           0.,           0.
    453,          29.,           0.,           1.
    454,          29.,           0.,           2.
    455,          29.,           0.,           3.
    456,          29.,           0.,           4.
    457,          29.,           0.,           5.
    458,          29.,           0.,           6.
    459,          29.,           0.,           7.
    460,          29.,           0.,           8.
    461,          29.,           0.,           9.
    462,          29.,           0.,          10.
    463,          28.,          20.,           0.
    464,          28.,          20.,           1.
    465,          28.,          20.,           2.
    466,          28.,          20.,           3.
    467,          28.,          20.,           4.
    468,          28.,          20.,           5.
    469,          28.,          20.,           6.
    470,          28.,          20.,           7.
    471,          28.,          20.,           8.
    472,          28.,          20.,           9.
    473,          28.,          20.,          10.
    474,          28.,          19.,           0.
    475,          28.,          19.,           1.
    476,          28.,          19.,           2.
    477,          28.,          19.,           3.
    478,          28.,          19.,           4.
    479,          28.,          19.,           5.
    480,          28.,          19.,           6.
    481,          28.,          19.,           7.
    482,          28.,          19.,           8.
    483,          28.,          19.,           9.
    484,          28.,          19.,          10.
    485,          28.,          18.,           0.
    486,          28.,          18.,           1.
    487,          28.,          18.,           2.
    488,          28.,          18.,           3.
    489,          28.,          18.,           4.
    490,          28.,          18.,           5.
    491,          28.,          18.,           6.
    492,          28.,          18.,           7.
    493,          28.,          18.,           8.
    494,          28.,          18.,           9.
    495,          28.,          18.,          10.
    496,          28.,          17.,           0.
    497,          28.,          17.,           1.
    498,          28.,          17.,           2.
    499,          28.,          17.,           3.
    500,          28.,          17.,           4.
    501,          28.,          17.,           5.
    502,          28.,          17.,           6.
    503,          28.,          17.,           7.
    504,          28.,          17.,           8.
    505,          28.,          17.,           9.
    506,          28.,          17.,          10.
    507,          28.,          16.,           0.
    508,          28.,          16.,           1.
    509,          28.,          16.,           2.
    510,          28.,          16.,           3.
    511,          28.,          16.,           4.
    512,          28.,          16.,           5.
    513,          28.,          16.,           6.
    514,          28.,          16.,           7.
    515,          28.,          16.,           8.
    516,          28.,          16.,           9.
    517,          28.,          16.,          10.
    518,          28.,          15.,           0.
    519,          28.,          15.,           1.
    520,          28.,          15.,           2.
    521,          28.,          15.,           3.
    522,          28.,          15.,           4.
    523,          28.,          15.,           5.
    524,          28.,          15.,           6.
    525,          28.,          15.,           7.
    526,          28.,          15.,           8.
    527,          28.,          15.,           9.
    528,          28.,          15.,          10.
    529,          28.,          14.,           0.
    530,          28.,          14.,           1.
    531,          28.,          14.,           2.
    532,          28.,          14.,           3.
    533,          28.,          14.,           4.
    534,          28.,          14.,           5.
    535,          28.,          14.,           6.
    536,          28.,          14.,           7.
    537,          28.,          14.,           8.
    538,          28.,          14.,           9.
    539,          28.,          14.,          10.
    540,          28.,          13.,           0.
    541,          28.,          13.,           1.
    542,          28.,          13.,           2.
    543,          28.,          13.,           3.
    544,          28.,          13.,           4.
    545,          28.,          13.,           5.
    546,          28.,          13.,           6.
    547,          28.,          13.,           7.
    548,          28.,          13.,           8.
    549,          28.,          13.,           9.
    550,          28.,          13.,          10.
    551,          28.,          12.,           0.
    552,          28.,          12.,           1.
    553,          28.,          12.,           2.
    554,          28.,          12.,           3.
    555,          28.,          12.,           4.
    556,          28.,          12.,           5.
    557,          28.,          12.,           6.
    558,          28.,          12.,           7.
    559,          28.,          12.,           8.
    560,          28.,          12.,           9.
    561,          28.,          12.,          10.
    562,          28.,          11.,           0.
    563,          28.,          11.,           1.
    564,          28.,          11.,           2.
    565,          28.,          11.,           3.
    566,          28.,          11.,           4.
    567,          28.,          11.,           5.
    568,          28.,          11.,           6.
    569,          28.,          11.,           7.
    570,          28.,          11.,           8.
    571,          28.,          11.,           9.
    572,          28.,          11.,          10.
    573,          28.,          10.,           0.
    574,          28.,          10.,           1.
    575,          28.,          10.,           2.
    576,          28.,          10.,           3.
    577,          28.,          10.,           4.
    578,          28.,          10.,           5.
    579,          28.,          10.,           6.
    580,          28.,          10.,           7.
    581,          28.,          10.,           8.
    582,          28.,          10.,           9.
    583,          28.,          10.,          10.
    584,          28.,           9.,           0.
    585,          28.,           9.,           1.
    586,          28.,           9.,           2.
    587,          28.,           9.,           3.
    588,          28.,           9.,           4.
    589,          28.,           9.,           5.
    590,          28.,           9.,           6.
    591,          28.,           9.,           7.
    592,          28.,           9.,           8.
    593,          28.,           9.,           9.
    594,          28.,           9.,          10.
    595,          28.,           8.,           0.
    596,          28.,           8.,           1.
    597,          28.,           8.,           2.
    598,          28.,           8.,           3.
    599,          28.,           8.,           4.
    600,          28.,           8.,           5.
    601,          28.,           8.,           6.
    602,          28.,           8.,           7.
    603,          28.,           8.,           8.
    604,          28.,           8.,           9.
    605,          28.,           8.,          10.
    606,          28.,           7.,           0.
    607,          28.,           7.,           1.
    608,          28.,           7.,           2.
    609,          28.,           7.,           3.
    610,          28.,           7.,           4.
    611,          28.,           7.,           5.
    612,          28.,           7.,           6.
    613,          28.,           7.,           7.
    614,          28.,           7.,           8.
    615,          28.,           7.,           9.
    616,          28.,           7.,          10.
    617,          28.,           6.,           0.
    618,          28.,           6.,           1.
    619,          28.,           6.,           2.
    620,          28.,           6.,           3.
    621,          28.,           6.,           4.
    622,          28.,           6.,           5.
    623,          28.,           6.,           6.
    624,          28.,           6.,           7.
    625,          28.,           6.,           8.
    626,          28.,           6.,           9.
    627,          28.,           6.,          10.
    628,          28.,           5.,           0.
    629,          28.,           5.,           1.
    630,          28.,           5.,           2.
    631,          28.,           5.,           3.
    632,          28.,           5.,           4.
    633,          28.,           5.,           5.
    634,          28.,           5.,           6.
    635,          28.,           5.,           7.
    636,          28.,           5.,           8.
    637,          28.,           5.,           9.
    638,          28.,           5.,          10.
    639,          28.,           4.,           0.
    640,          28.,           4.,           1.
    641,          28.,           4.,           2.
    642,          28.,           4.,           3.
    643,          28.,           4.,           4.
    644,          28.,           4.,           5.
    645,          28.,           4.,           6.
    646,          28.,           4.,           7.
    647,          28.,           4.,           8.
    648,          28.,           4.,           9.
    649,          28.,           4.,          10.
    650,          28.,           3.,           0.
    651,          28.,           3.,           1.
    652,          28.,           3.,           2.
    653,          28.,           3.,           3.
    654,          28.,           3.,           4.
    655,          28.,           3.,           5.
    656,          28.,           3.,           6.
    657,          28.,           3.,           7.
    658,          28.,           3.,           8.
    659,          28.,           3.,           9.
    660,          28.,           3.,          10.
    661,          28.,           2.,           0.
    662,          28.,           2.,           1.
    663,          28.,           2.,           2.
    664,          28.,           2.,           3.
    665,          28.,           2.,           4.
    666,          28.,           2.,           5.
    667,          28.,           2.,           6.
    668,          28.,           2.,           7.
    669,          28.,           2.,           8.
    670,          28.,           2.,           9.
    671,          28.,           2.,          10.
    672,          28.,           1.,           0.
    673,          28.,           1.,           1.
    674,          28.,           1.,           2.
    675,          28.,           1.,           3.
    676,          28.,           1.,           4.
    677,          28.,           1.,           5.
    678,          28.,           1.,           6.
    679,          28.,           1.,           7.
    680,          28.,           1.,           8.
    681,          28.,           1.,           9.
    682,          28.,           1.,          10.
    683,          28.,           0.,           0.
    684,          28.,           0.,           1.
    685,          28.,           0.,           2.
    686,          28.,           0.,           3.
    687,          28.,           0.,           4.
    688,          28.,           0.,           5.
    689,          28.,           0.,           6.
    690,          28.,           0.,           7.
    691,          28.,           0.,           8.
    692,          28.,           0.,           9.
    693,          28.,           0.,          10.
    694,          27.,          20.,           0.
    695,          27.,          20.,           1.
    696,          27.,          20.,           2.
    697,          27.,          20.,           3.
    698,          27.,          20.,           4.
    699,          27.,          20.,           5.
    700,          27.,          20.,           6.
    701,          27.,          20.,           7.
    702,          27.,          20.,           8.
    703,          27.,          20.,           9.
    704,          27.,          20.,          10.
    705,          27.,          19.,           0.
    706,          27.,          19.,           1.
    707,          27.,          19.,           2.
    708,          27.,          19.,           3.
    709,          27.,          19.,           4.
    710,          27.,          19.,           5.
    711,          27.,          19.,           6.
    712,          27.,          19.,           7.
    713,          27.,          19.,           8.
    714,          27.,          19.,           9.
    715,          27.,          19.,          10.
    716,          27.,          18.,           0.
    717,          27.,          18.,           1.
    718,          27.,          18.,           2.
    719,          27.,          18.,           3.
    720,          27.,          18.,           4.
    721,          27.,          18.,           5.
    722,          27.,          18.,           6.
    723,          27.,          18.,           7.
    724,          27.,          18.,           8.
    725,          27.,          18.,           9.
    726,          27.,          18.,          10.
    727,          27.,          17.,           0.
    728,          27.,          17.,           1.
    729,          27.,          17.,           2.
    730,          27.,          17.,           3.
    731,          27.,          17.,           4.
    732,          27.,          17.,           5.
    733,          27.,          17.,           6.
    734,          27.,          17.,           7.
    735,          27.,          17.,           8.
    736,          27.,          17.,           9.
    737,          27.,          17.,          10.
    738,          27.,          16.,           0.
    739,          27.,          16.,           1.
    740,          27.,          16.,           2.
    741,          27.,          16.,           3.
    742,          27.,          16.,           4.
    743,          27.,          16.,           5.
    744,          27.,          16.,           6.
    745,          27.,          16.,           7.
    746,          27.,          16.,           8.
    747,          27.,          16.,           9.
    748,          27.,          16.,          10.
    749,          27.,          15.,           0.
    750,          27.,          15.,           1.
    751,          27.,          15.,           2.
    752,          27.,          15.,           3.
    753,          27.,          15.,           4.
    754,          27.,          15.,           5.
    755,          27.,          15.,           6.
    756,          27.,          15.,           7.
    757,          27.,          15.,           8.
    758,          27.,          15.,           9.
    759,          27.,          15.,          10.
    760,          27.,          14.,           0.
    761,          27.,          14.,           1.
    762,          27.,          14.,           2.
    763,          27.,          14.,           3.
    764,          27.,          14.,           4.
    765,          27.,          14.,           5.
    766,          27.,          14.,           6.
    767,          27.,          14.,           7.
    768,          27.,          14.,           8.
    769,          27.,          14.,           9.
    770,          27.,          14.,          10.
    771,          27.,          13.,           0.
    772,          27.,          13.,           1.
    773,          27.,          13.,           2.
    774,          27.,          13.,           3.
    775,          27.,          13.,           4.
    776,          27.,          13.,           5.
    777,          27.,          13.,           6.
    778,          27.,          13.,           7.
    779,          27.,          13.,           8.
    780,          27.,          13.,           9.
    781,          27.,          13.,          10.
    782,          27.,          12.,           0.
    783,          27.,          12.,           1.
    784,          27.,          12.,           2.
    785,          27.,          12.,           3.
    786,          27.,          12.,           4.
    787,          27.,          12.,           5.
    788,          27.,          12.,           6.
    789,          27.,          12.,           7.
    790,          27.,          12.,           8.
    791,          27.,          12.,           9.
    792,          27.,          12.,          10.
    793,          27.,          11.,           0.
    794,          27.,          11.,           1.
    795,          27.,          11.,           2.
    796,          27.,          11.,           3.
    797,          27.,          11.,           4.
    798,          27.,          11.,           5.
    799,          27.,          11.,           6.
    800,          27.,          11.,           7.
    801,          27.,          11.,           8.
    802,          27.,          11.,           9.
    803,          27.,          11.,          10.
    804,          27.,          10.,           0.
    805,          27.,          10.,           1.
    806,          27.,          10.,           2.
    807,          27.,          10.,           3.
    808,          27.,          10.,           4.
    809,          27.,          10.,           5.
    810,          27.,          10.,           6.
    811,          27.,          10.,           7.
    812,          27.,          10.,           8.
    813,          27.,          10.,           9.
    814,          27.,          10.,          10.
    815,          27.,           9.,           0.
    816,          27.,           9.,           1.
    817,          27.,           9.,           2.
    818,          27.,           9.,           3.
    819,          27.,           9.,           4.
    820,          27.,           9.,           5.
    821,          27.,           9.,           6.
    822,          27.,           9.,           7.
    823,          27.,           9.,           8.
    824,          27.,           9.,           9.
    825,          27.,           9.,          10.
    826,          27.,           8.,           0.
    827,          27.,           8.,           1.
    828,          27.,           8.,           2.
    829,          27.,           8.,           3.
    830,          27.,           8.,           4.
    831,          27.,           8.,           5.
    832,          27.,           8.,           6.
    833,          27.,           8.,           7.
    834,          27.,           8.,           8.
    835,          27.,           8.,           9.
    836,          27.,           8.,          10.
    837,          27.,           7.,           0.
    838,          27.,           7.,           1.
    839,          27.,           7.,           2.
    840,          27.,           7.,           3.
    841,          27.,           7.,           4.
    842,          27.,           7.,           5.
    843,          27.,           7.,           6.
    844,          27.,           7.,           7.
    845,          27.,           7.,           8.
    846,          27.,           7.,           9.
    847,          27.,           7.,          10.
    848,          27.,           6.,           0.
    849,          27.,           6.,           1.
    850,          27.,           6.,           2.
    851,          27.,           6.,           3.
    852,          27.,           6.,           4.
    853,          27.,           6.,           5.
    854,          27.,           6.,           6.
    855,          27.,           6.,           7.
    856,          27.,           6.,           8.
    857,          27.,           6.,           9.
    858,          27.,           6.,          10.
    859,          27.,           5.,           0.
    860,          27.,           5.,           1.
    861,          27.,           5.,           2.
    862,          27.,           5.,           3.
    863,          27.,           5.,           4.
    864,          27.,           5.,           5.
    865,          27.,           5.,           6.
    866,          27.,           5.,           7.
    867,          27.,           5.,           8.
    868,          27.,           5.,           9.
    869,          27.,           5.,          10.
    870,          27.,           4.,           0.
    871,          27.,           4.,           1.
    872,          27.,           4.,           2.
    873,          27.,           4.,           3.
    874,          27.,           4.,           4.
    875,          27.,           4.,           5.
    876,          27.,           4.,           6.
    877,          27.,           4.,           7.
    878,          27.,           4.,           8.
    879,          27.,           4.,           9.
    880,          27.,           4.,          10.
    881,          27.,           3.,           0.
    882,          27.,           3.,           1.
    883,          27.,           3.,           2.
    884,          27.,           3.,           3.
    885,          27.,           3.,           4.
    886,          27.,           3.,           5.
    887,          27.,           3.,           6.
    888,          27.,           3.,           7.
    889,          27.,           3.,           8.
    890,          27.,           3.,           9.
    891,          27.,           3.,          10.
    892,          27.,           2.,           0.
    893,          27.,           2.,           1.
    894,          27.,           2.,           2.
    895,          27.,           2.,           3.
    896,          27.,           2.,           4.
    897,          27.,           2.,           5.
    898,          27.,           2.,           6.
    899,          27.,           2.,           7.
    900,          27.,           2.,           8.
    901,          27.,           2.,           9.
    902,          27.,           2.,          10.
    903,          27.,           1.,           0.
    904,          27.,           1.,           1.
    905,          27.,           1.,           2.
    906,          27.,           1.,           3.
    907,          27.,           1.,           4.
    908,          27.,           1.,           5.
    909,          27.,           1.,           6.
    910,          27.,           1.,           7.
    911,          27.,           1.,           8.
    912,          27.,           1.,           9.
    913,          27.,           1.,          10.
    914,          27.,           0.,           0.
    915,          27.,           0.,           1.
    916,          27.,           0.,           2.
    917,          27.,           0.,           3.
    918,          27.,           0.,           4.
    919,          27.,           0.,           5.
    920,          27.,           0.,           6.
    921,          27.,           0.,           7.
    922,          27.,           0.,           8.
    923,          27.,           0.,           9.
    924,          27.,           0.,          10.
    925,          26.,          20.,           0.
    926,          26.,          20.,           1.
    927,          26.,          20.,           2.
    928,          26.,          20.,           3.
    929,          26.,          20.,           4.
    930,          26.,          20.,           5.
    931,          26.,          20.,           6.
    932,          26.,          20.,           7.
    933,          26.,          20.,           8.
    934,          26.,          20.,           9.
    935,          26.,          20.,          10.
    936,          26.,          19.,           0.
    937,          26.,          19.,           1.
    938,          26.,          19.,           2.
    939,          26.,          19.,           3.
    940,          26.,          19.,           4.
    941,          26.,          19.,           5.
    942,          26.,          19.,           6.
    943,          26.,          19.,           7.
    944,          26.,          19.,           8.
    945,          26.,          19.,           9.
    946,          26.,          19.,          10.
    947,          26.,          18.,           0.
    948,          26.,          18.,           1.
    949,          26.,          18.,           2.
    950,          26.,          18.,           3.
    951,          26.,          18.,           4.
    952,          26.,          18.,           5.
    953,          26.,          18.,           6.
    954,          26.,          18.,           7.
    955,          26.,          18.,           8.
    956,          26.,          18.,           9.
    957,          26.,          18.,          10.
    958,          26.,          17.,           0.
    959,          26.,          17.,           1.
    960,          26.,          17.,           2.
    961,          26.,          17.,           3.
    962,          26.,          17.,           4.
    963,          26.,          17.,           5.
    964,          26.,          17.,           6.
    965,          26.,          17.,           7.
    966,          26.,          17.,           8.
    967,          26.,          17.,           9.
    968,          26.,          17.,          10.
    969,          26.,          16.,           0.
    970,          26.,          16.,           1.
    971,          26.,          16.,           2.
    972,          26.,          16.,           3.
    973,          26.,          16.,           4.
    974,          26.,          16.,           5.
    975,          26.,          16.,           6.
    976,          26.,          16.,           7.
    977,          26.,          16.,           8.
    978,          26.,          16.,           9.
    979,          26.,          16.,          10.
    980,          26.,          15.,           0.
    981,          26.,          15.,           1.
    982,          26.,          15.,           2.
    983,          26.,          15.,           3.
    984,          26.,          15.,           4.
    985,          26.,          15.,           5.
    986,          26.,          15.,           6.
    987,          26.,          15.,           7.
    988,          26.,          15.,           8.
    989,          26.,          15.,           9.
    990,          26.,          15.,          10.
    991,          26.,          14.,           0.
    992,          26.,          14.,           1.
    993,          26.,          14.,           2.
    994,          26.,          14.,           3.
    995,          26.,          14.,           4.
    996,          26.,          14.,           5.
    997,          26.,          14.,           6.
    998,          26.,          14.,           7.
    999,          26.,          14.,           8.
   1000,          26.,          14.,           9.
   1001,          26.,          14.,          10.
   1002,          26.,          13.,           0.
   1003,          26.,          13.,           1.
   1004,          26.,          13.,           2.
   1005,          26.,          13.,           3.
   1006,          26.,          13.,           4.
   1007,          26.,          13.,           5.
   1008,          26.,          13.,           6.
   1009,          26.,          13.,           7.
   1010,          26.,          13.,           8.
   1011,          26.,          13.,           9.
   1012,          26.,          13.,          10.
   1013,          26.,          12.,           0.
   1014,          26.,          12.,           1.
   1015,          26.,          12.,           2.
   1016,          26.,          12.,           3.
   1017,          26.,          12.,           4.
   1018,          26.,          12.,           5.
   1019,          26.,          12.,           6.
   1020,          26.,          12.,           7.
   1021,          26.,          12.,           8.
   1022,          26.,          12.,           9.
   1023,          26.,          12.,          10.
   1024,          26.,          11.,           0.
   1025,          26.,          11.,           1.
   1026,          26.,          11.,           2.
   1027,          26.,          11.,           3.
   1028,          26.,          11.,           4.
   1029,          26.,          11.,           5.
   1030,          26.,          11.,           6.
   1031,          26.,          11.,           7.
   1032,          26.,          11.,           8.
   1033,          26.,          11.,           9.
   1034,          26.,          11.,          10.
   1035,          26.,          10.,           0.
   1036,          26.,          10.,           1.
   1037,          26.,          10.,           2.
   1038,          26.,          10.,           3.
   1039,          26.,          10.,           4.
   1040,          26.,          10.,           5.
   1041,          26.,          10.,           6.
   1042,          26.,          10.,           7.
   1043,          26.,          10.,           8.
   1044,          26.,          10.,           9.
   1045,          26.,          10.,          10.
   1046,          26.,           9.,           0.
   1047,          26.,           9.,           1.
   1048,          26.,           9.,           2.
   1049,          26.,           9.,           3.
   1050,          26.,           9.,           4.
   1051,          26.,           9.,           5.
   1052,          26.,           9.,           6.
   1053,          26.,           9.,           7.
   1054,          26.,           9.,           8.
   1055,          26.,           9.,           9.
   1056,          26.,           9.,          10.
   1057,          26.,           8.,           0.
   1058,          26.,           8.,           1.
   1059,          26.,           8.,           2.
   1060,          26.,           8.,           3.
   1061,          26.,           8.,           4.
   1062,          26.,           8.,           5.
   1063,          26.,           8.,           6.
   1064,          26.,           8.,           7.
   1065,          26.,           8.,           8.
   1066,          26.,           8.,           9.
   1067,          26.,           8.,          10.
   1068,          26.,           7.,           0.
   1069,          26.,           7.,           1.
   1070,          26.,           7.,           2.
   1071,          26.,           7.,           3.
   1072,          26.,           7.,           4.
   1073,          26.,           7.,           5.
   1074,          26.,           7.,           6.
   1075,          26.,           7.,           7.
   1076,          26.,           7.,           8.
   1077,          26.,           7.,           9.
   1078,          26.,           7.,          10.
   1079,          26.,           6.,           0.
   1080,          26.,           6.,           1.
   1081,          26.,           6.,           2.
   1082,          26.,           6.,           3.
   1083,          26.,           6.,           4.
   1084,          26.,           6.,           5.
   1085,          26.,           6.,           6.
   1086,          26.,           6.,           7.
   1087,          26.,           6.,           8.
   1088,          26.,           6.,           9.
   1089,          26.,           6.,          10.
   1090,          26.,           5.,           0.
   1091,          26.,           5.,           1.
   1092,          26.,           5.,           2.
   1093,          26.,           5.,           3.
   1094,          26.,           5.,           4.
   1095,          26.,           5.,           5.
   1096,          26.,           5.,           6.
   1097,          26.,           5.,           7.
   1098,          26.,           5.,           8.
   1099,          26.,           5.,           9.
   1100,          26.,           5.,          10.
   1101,          26.,           4.,           0.
   1102,          26.,           4.,           1.
   1103,          26.,           4.,           2.
   1104,          26.,           4.,           3.
   1105,          26.,           4.,           4.
   1106,          26.,           4.,           5.
   1107,          26.,           4.,           6.
   1108,          26.,           4.,           7.
   1109,          26.,           4.,           8.
   1110,          26.,           4.,           9.
   1111,          26.,           4.,          10.
   1112,          26.,           3.,           0.
   1113,          26.,           3.,           1.
   1114,          26.,           3.,           2.
   1115,          26.,           3.,           3.
   1116,          26.,           3.,           4.
   1117,          26.,           3.,           5.
   1118,          26.,           3.,           6.
   1119,          26.,           3.,           7.
   1120,          26.,           3.,           8.
   1121,          26.,           3.,           9.
   1122,          26.,           3.,          10.
   1123,          26.,           2.,           0.
   1124,          26.,           2.,           1.
   1125,          26.,           2.,           2.
   1126,          26.,           2.,           3.
   1127,          26.,           2.,           4.
   1128,          26.,           2.,           5.
   1129,          26.,           2.,           6.
   1130,          26.,           2.,           7.
   1131,          26.,           2.,           8.
   1132,          26.,           2.,           9.
   1133,          26.,           2.,          10.
   1134,          26.,           1.,           0.
   1135,          26.,           1.,           1.
   1136,          26.,           1.,           2.
   1137,          26.,           1.,           3.
   1138,          26.,           1.,           4.
   1139,          26.,           1.,           5.
   1140,          26.,           1.,           6.
   1141,          26.,           1.,           7.
   1142,          26.,           1.,           8.
   1143,          26.,           1.,           9.
   1144,          26.,           1.,          10.
   1145,          26.,           0.,           0.
   1146,          26.,           0.,           1.
   1147,          26.,           0.,           2.
   1148,          26.,           0.,           3.
   1149,          26.,           0.,           4.
   1150,          26.,           0.,           5.
   1151,          26.,           0.,           6.
   1152,          26.,           0.,           7.
   1153,          26.,           0.,           8.
   1154,          26.,           0.,           9.
   1155,          26.,           0.,          10.
   1156,          25.,          20.,           0.
   1157,          25.,          20.,           1.
   1158,          25.,          20.,           2.
   1159,          25.,          20.,           3.
   1160,          25.,          20.,           4.
   1161,          25.,          20.,           5.
   1162,          25.,          20.,           6.
   1163,          25.,          20.,           7.
   1164,          25.,          20.,           8.
   1165,          25.,          20.,           9.
   1166,          25.,          20.,          10.
   1167,          25.,          19.,           0.
   1168,          25.,          19.,           1.
   1169,          25.,          19.,           2.
   1170,          25.,          19.,           3.
   1171,          25.,          19.,           4.
   1172,          25.,          19.,           5.
   1173,          25.,          19.,           6.
   1174,          25.,          19.,           7.
   1175,          25.,          19.,           8.
   1176,          25.,          19.,           9.
   1177,          25.,          19.,          10.
   1178,          25.,          18.,           0.
   1179,          25.,          18.,           1.
   1180,          25.,          18.,           2.
   1181,          25.,          18.,           3.
   1182,          25.,          18.,           4.
   1183,          25.,          18.,           5.
   1184,          25.,          18.,           6.
   1185,          25.,          18.,           7.
   1186,          25.,          18.,           8.
   1187,          25.,          18.,           9.
   1188,          25.,          18.,          10.
   1189,          25.,          17.,           0.
   1190,          25.,          17.,           1.
   1191,          25.,          17.,           2.
   1192,          25.,          17.,           3.
   1193,          25.,          17.,           4.
   1194,          25.,          17.,           5.
   1195,          25.,          17.,           6.
   1196,          25.,          17.,           7.
   1197,          25.,          17.,           8.
   1198,          25.,          17.,           9.
   1199,          25.,          17.,          10.
   1200,          25.,          16.,           0.
   1201,          25.,          16.,           1.
   1202,          25.,          16.,           2.
   1203,          25.,          16.,           3.
   1204,          25.,          16.,           4.
   1205,          25.,          16.,           5.
   1206,          25.,          16.,           6.
   1207,          25.,          16.,           7.
   1208,          25.,          16.,           8.
   1209,          25.,          16.,           9.
   1210,          25.,          16.,          10.
   1211,          25.,          15.,           0.
   1212,          25.,          15.,           1.
   1213,          25.,          15.,           2.
   1214,          25.,          15.,           3.
   1215,          25.,          15.,           4.
   1216,          25.,          15.,           5.
   1217,          25.,          15.,           6.
   1218,          25.,          15.,           7.
   1219,          25.,          15.,           8.
   1220,          25.,          15.,           9.
   1221,          25.,          15.,          10.
   1222,          25.,          14.,           0.
   1223,          25.,          14.,           1.
   1224,          25.,          14.,           2.
   1225,          25.,          14.,           3.
   1226,          25.,          14.,           4.
   1227,          25.,          14.,           5.
   1228,          25.,          14.,           6.
   1229,          25.,          14.,           7.
   1230,          25.,          14.,           8.
   1231,          25.,          14.,           9.
   1232,          25.,          14.,          10.
   1233,          25.,          13.,           0.
   1234,          25.,          13.,           1.
   1235,          25.,          13.,           2.
   1236,          25.,          13.,           3.
   1237,          25.,          13.,           4.
   1238,          25.,          13.,           5.
   1239,          25.,          13.,           6.
   1240,          25.,          13.,           7.
   1241,          25.,          13.,           8.
   1242,          25.,          13.,           9.
   1243,          25.,          13.,          10.
   1244,          25.,          12.,           0.
   1245,          25.,          12.,           1.
   1246,          25.,          12.,           2.
   1247,          25.,          12.,           3.
   1248,          25.,          12.,           4.
   1249,          25.,          12.,           5.
   1250,          25.,          12.,           6.
   1251,          25.,          12.,           7.
   1252,          25.,          12.,           8.
   1253,          25.,          12.,           9.
   1254,          25.,          12.,          10.
   1255,          25.,          11.,           0.
   1256,          25.,          11.,           1.
   1257,          25.,          11.,           2.
   1258,          25.,          11.,           3.
   1259,          25.,          11.,           4.
   1260,          25.,          11.,           5.
   1261,          25.,          11.,           6.
   1262,          25.,          11.,           7.
   1263,          25.,          11.,           8.
   1264,          25.,          11.,           9.
   1265,          25.,          11.,          10.
   1266,          25.,          10.,           0.
   1267,          25.,          10.,           1.
   1268,          25.,          10.,           2.
   1269,          25.,          10.,           3.
   1270,          25.,          10.,           4.
   1271,          25.,          10.,           5.
   1272,          25.,          10.,           6.
   1273,          25.,          10.,           7.
   1274,          25.,          10.,           8.
   1275,          25.,          10.,           9.
   1276,          25.,          10.,          10.
   1277,          25.,           9.,           0.
   1278,          25.,           9.,           1.
   1279,          25.,           9.,           2.
   1280,          25.,           9.,           3.
   1281,          25.,           9.,           4.
   1282,          25.,           9.,           5.
   1283,          25.,           9.,           6.
   1284,          25.,           9.,           7.
   1285,          25.,           9.,           8.
   1286,          25.,           9.,           9.
   1287,          25.,           9.,          10.
   1288,          25.,           8.,           0.
   1289,          25.,           8.,           1.
   1290,          25.,           8.,           2.
   1291,          25.,           8.,           3.
   1292,          25.,           8.,           4.
   1293,          25.,           8.,           5.
   1294,          25.,           8.,           6.
   1295,          25.,           8.,           7.
   1296,          25.,           8.,           8.
   1297,          25.,           8.,           9.
   1298,          25.,           8.,          10.
   1299,          25.,           7.,           0.
   1300,          25.,           7.,           1.
   1301,          25.,           7.,           2.
   1302,          25.,           7.,           3.
   1303,          25.,           7.,           4.
   1304,          25.,           7.,           5.
   1305,          25.,           7.,           6.
   1306,          25.,           7.,           7.
   1307,          25.,           7.,           8.
   1308,          25.,           7.,           9.
   1309,          25.,           7.,          10.
   1310,          25.,           6.,           0.
   1311,          25.,           6.,           1.
   1312,          25.,           6.,           2.
   1313,          25.,           6.,           3.
   1314,          25.,           6.,           4.
   1315,          25.,           6.,           5.
   1316,          25.,           6.,           6.
   1317,          25.,           6.,           7.
   1318,          25.,           6.,           8.
   1319,          25.,           6.,           9.
   1320,          25.,           6.,          10.
   1321,          25.,           5.,           0.
   1322,          25.,           5.,           1.
   1323,          25.,           5.,           2.
   1324,          25.,           5.,           3.
   1325,          25.,           5.,           4.
   1326,          25.,           5.,           5.
   1327,          25.,           5.,           6.
   1328,          25.,           5.,           7.
   1329,          25.,           5.,           8.
   1330,          25.,           5.,           9.
   1331,          25.,           5.,          10.
   1332,          25.,           4.,           0.
   1333,          25.,           4.,           1.
   1334,          25.,           4.,           2.
   1335,          25.,           4.,           3.
   1336,          25.,           4.,           4.
   1337,          25.,           4.,           5.
   1338,          25.,           4.,           6.
   1339,          25.,           4.,           7.
   1340,          25.,           4.,           8.
   1341,          25.,           4.,           9.
   1342,          25.,           4.,          10.
   1343,          25.,           3.,           0.
   1344,          25.,           3.,           1.
   1345,          25.,           3.,           2.
   1346,          25.,           3.,           3.
   1347,          25.,           3.,           4.
   1348,          25.,           3.,           5.
   1349,          25.,           3.,           6.
   1350,          25.,           3.,           7.
   1351,          25.,           3.,           8.
   1352,          25.,           3.,           9.
   1353,          25.,           3.,          10.
   1354,          25.,           2.,           0.
   1355,          25.,           2.,           1.
   1356,          25.,           2.,           2.
   1357,          25.,           2.,           3.
   1358,          25.,           2.,           4.
   1359,          25.,           2.,           5.
   1360,          25.,           2.,           6.
   1361,          25.,           2.,           7.
   1362,          25.,           2.,           8.
   1363,          25.,           2.,           9.
   1364,          25.,           2.,          10.
   1365,          25.,           1.,           0.
   1366,          25.,           1.,           1.
   1367,          25.,           1.,           2.
   1368,          25.,           1.,           3.
   1369,          25.,           1.,           4.
   1370,          25.,           1.,           5.
   1371,          25.,           1.,           6.
   1372,          25.,           1.,           7.
   1373,          25.,           1.,           8.
   1374,          25.,           1.,           9.
   1375,          25.,           1.,          10.
   1376,          25.,           0.,           0.
   1377,          25.,           0.,           1.
   1378,          25.,           0.,           2.
   1379,          25.,           0.,           3.
   1380,          25.,           0.,           4.
   1381,          25.,           0.,           5.
   1382,          25.,           0.,           6.
   1383,          25.,           0.,           7.
   1384,          25.,           0.,           8.
   1385,          25.,           0.,           9.
   1386,          25.,           0.,          10.
   1387,          24.,          20.,           0.
   1388,          24.,          20.,           1.
   1389,          24.,          20.,           2.
   1390,          24.,          20.,           3.
   1391,          24.,          20.,           4.
   1392,          24.,          20.,           5.
   1393,          24.,          20.,           6.
   1394,          24.,          20.,           7.
   1395,          24.,          20.,           8.
   1396,          24.,          20.,           9.
   1397,          24.,          20.,          10.
   1398,          24.,          19.,           0.
   1399,          24.,          19.,           1.
   1400,          24.,          19.,           2.
   1401,          24.,          19.,           3.
   1402,          24.,          19.,           4.
   1403,          24.,          19.,           5.
   1404,          24.,          19.,           6.
   1405,          24.,          19.,           7.
   1406,          24.,          19.,           8.
   1407,          24.,          19.,           9.
   1408,          24.,          19.,          10.
   1409,          24.,          18.,           0.
   1410,          24.,          18.,           1.
   1411,          24.,          18.,           2.
   1412,          24.,          18.,           3.
   1413,          24.,          18.,           4.
   1414,          24.,          18.,           5.
   1415,          24.,          18.,           6.
   1416,          24.,          18.,           7.
   1417,          24.,          18.,           8.
   1418,          24.,          18.,           9.
   1419,          24.,          18.,          10.
   1420,          24.,          17.,           0.
   1421,          24.,          17.,           1.
   1422,          24.,          17.,           2.
   1423,          24.,          17.,           3.
   1424,          24.,          17.,           4.
   1425,          24.,          17.,           5.
   1426,          24.,          17.,           6.
   1427,          24.,          17.,           7.
   1428,          24.,          17.,           8.
   1429,          24.,          17.,           9.
   1430,          24.,          17.,          10.
   1431,          24.,          16.,           0.
   1432,          24.,          16.,           1.
   1433,          24.,          16.,           2.
   1434,          24.,          16.,           3.
   1435,          24.,          16.,           4.
   1436,          24.,          16.,           5.
   1437,          24.,          16.,           6.
   1438,          24.,          16.,           7.
   1439,          24.,          16.,           8.
   1440,          24.,          16.,           9.
   1441,          24.,          16.,          10.
   1442,          24.,          15.,           0.
   1443,          24.,          15.,           1.
   1444,          24.,          15.,           2.
   1445,          24.,          15.,           3.
   1446,          24.,          15.,           4.
   1447,          24.,          15.,           5.
   1448,          24.,          15.,           6.
   1449,          24.,          15.,           7.
   1450,          24.,          15.,           8.
   1451,          24.,          15.,           9.
   1452,          24.,          15.,          10.
   1453,          24.,          14.,           0.
   1454,          24.,          14.,           1.
   1455,          24.,          14.,           2.
   1456,          24.,          14.,           3.
   1457,          24.,          14.,           4.
   1458,          24.,          14.,           5.
   1459,          24.,          14.,           6.
   1460,          24.,          14.,           7.
   1461,          24.,          14.,           8.
   1462,          24.,          14.,           9.
   1463,          24.,          14.,          10.
   1464,          24.,          13.,           0.
   1465,          24.,          13.,           1.
   1466,          24.,          13.,           2.
   1467,          24.,          13.,           3.
   1468,          24.,          13.,           4.
   1469,          24.,          13.,           5.
   1470,          24.,          13.,           6.
   1471,          24.,          13.,           7.
   1472,          24.,          13.,           8.
   1473,          24.,          13.,           9.
   1474,          24.,          13.,          10.
   1475,          24.,          12.,           0.
   1476,          24.,          12.,           1.
   1477,          24.,          12.,           2.
   1478,          24.,          12.,           3.
   1479,          24.,          12.,           4.
   1480,          24.,          12.,           5.
   1481,          24.,          12.,           6.
   1482,          24.,          12.,           7.
   1483,          24.,          12.,           8.
   1484,          24.,          12.,           9.
   1485,          24.,          12.,          10.
   1486,          24.,          11.,           0.
   1487,          24.,          11.,           1.
   1488,          24.,          11.,           2.
   1489,          24.,          11.,           3.
   1490,          24.,          11.,           4.
   1491,          24.,          11.,           5.
   1492,          24.,          11.,           6.
   1493,          24.,          11.,           7.
   1494,          24.,          11.,           8.
   1495,          24.,          11.,           9.
   1496,          24.,          11.,          10.
   1497,          24.,          10.,           0.
   1498,          24.,          10.,           1.
   1499,          24.,          10.,           2.
   1500,          24.,          10.,           3.
   1501,          24.,          10.,           4.
   1502,          24.,          10.,           5.
   1503,          24.,          10.,           6.
   1504,          24.,          10.,           7.
   1505,          24.,          10.,           8.
   1506,          24.,          10.,           9.
   1507,          24.,          10.,          10.
   1508,          24.,           9.,           0.
   1509,          24.,           9.,           1.
   1510,          24.,           9.,           2.
   1511,          24.,           9.,           3.
   1512,          24.,           9.,           4.
   1513,          24.,           9.,           5.
   1514,          24.,           9.,           6.
   1515,          24.,           9.,           7.
   1516,          24.,           9.,           8.
   1517,          24.,           9.,           9.
   1518,          24.,           9.,          10.
   1519,          24.,           8.,           0.
   1520,          24.,           8.,           1.
   1521,          24.,           8.,           2.
   1522,          24.,           8.,           3.
   1523,          24.,           8.,           4.
   1524,          24.,           8.,           5.
   1525,          24.,           8.,           6.
   1526,          24.,           8.,           7.
   1527,          24.,           8.,           8.
   1528,          24.,           8.,           9.
   1529,          24.,           8.,          10.
   1530,          24.,           7.,           0.
   1531,          24.,           7.,           1.
   1532,          24.,           7.,           2.
   1533,          24.,           7.,           3.
   1534,          24.,           7.,           4.
   1535,          24.,           7.,           5.
   1536,          24.,           7.,           6.
   1537,          24.,           7.,           7.
   1538,          24.,           7.,           8.
   1539,          24.,           7.,           9.
   1540,          24.,           7.,          10.
   1541,          24.,           6.,           0.
   1542,          24.,           6.,           1.
   1543,          24.,           6.,           2.
   1544,          24.,           6.,           3.
   1545,          24.,           6.,           4.
   1546,          24.,           6.,           5.
   1547,          24.,           6.,           6.
   1548,          24.,           6.,           7.
   1549,          24.,           6.,           8.
   1550,          24.,           6.,           9.
   1551,          24.,           6.,          10.
   1552,          24.,           5.,           0.
   1553,          24.,           5.,           1.
   1554,          24.,           5.,           2.
   1555,          24.,           5.,           3.
   1556,          24.,           5.,           4.
   1557,          24.,           5.,           5.
   1558,          24.,           5.,           6.
   1559,          24.,           5.,           7.
   1560,          24.,           5.,           8.
   1561,          24.,           5.,           9.
   1562,          24.,           5.,          10.
   1563,          24.,           4.,           0.
   1564,          24.,           4.,           1.
   1565,          24.,           4.,           2.
   1566,          24.,           4.,           3.
   1567,          24.,           4.,           4.
   1568,          24.,           4.,           5.
   1569,          24.,           4.,           6.
   1570,          24.,           4.,           7.
   1571,          24.,           4.,           8.
   1572,          24.,           4.,           9.
   1573,          24.,           4.,          10.
   1574,          24.,           3.,           0.
   1575,          24.,           3.,           1.
   1576,          24.,           3.,           2.
   1577,          24.,           3.,           3.
   1578,          24.,           3.,           4.
   1579,          24.,           3.,           5.
   1580,          24.,           3.,           6.
   1581,          24.,           3.,           7.
   1582,          24.,           3.,           8.
   1583,          24.,           3.,           9.
   1584,          24.,           3.,          10.
   1585,          24.,           2.,           0.
   1586,          24.,           2.,           1.
   1587,          24.,           2.,           2.
   1588,          24.,           2.,           3.
   1589,          24.,           2.,           4.
   1590,          24.,           2.,           5.
   1591,          24.,           2.,           6.
   1592,          24.,           2.,           7.
   1593,          24.,           2.,           8.
   1594,          24.,           2.,           9.
   1595,          24.,           2.,          10.
   1596,          24.,           1.,           0.
   1597,          24.,           1.,           1.
   1598,          24.,           1.,           2.
   1599,          24.,           1.,           3.
   1600,          24.,           1.,           4.
   1601,          24.,           1.,           5.
   1602,          24.,           1.,           6.
   1603,          24.,           1.,           7.
   1604,          24.,           1.,           8.
   1605,          24.,           1.,           9.
   1606,          24.,           1.,          10.
   1607,          24.,           0.,           0.
   1608,          24.,           0.,           1.
   1609,          24.,           0.,           2.
   1610,          24.,           0.,           3.
   1611,          24.,           0.,           4.
   1612,          24.,           0.,           5.
   1613,          24.,           0.,           6.
   1614,          24.,           0.,           7.
   1615,          24.,           0.,           8.
   1616,          24.,           0.,           9.
   1617,          24.,           0.,          10.
   1618,          23.,          20.,           0.
   1619,          23.,          20.,           1.
   1620,          23.,          20.,           2.
   1621,          23.,          20.,           3.
   1622,          23.,          20.,           4.
   1623,          23.,          20.,           5.
   1624,          23.,          20.,           6.
   1625,          23.,          20.,           7.
   1626,          23.,          20.,           8.
   1627,          23.,          20.,           9.
   1628,          23.,          20.,          10.
   1629,          23.,          19.,           0.
   1630,          23.,          19.,           1.
   1631,          23.,          19.,           2.
   1632,          23.,          19.,           3.
   1633,          23.,          19.,           4.
   1634,          23.,          19.,           5.
   1635,          23.,          19.,           6.
   1636,          23.,          19.,           7.
   1637,          23.,          19.,           8.
   1638,          23.,          19.,           9.
   1639,          23.,          19.,          10.
   1640,          23.,          18.,           0.
   1641,          23.,          18.,           1.
   1642,          23.,          18.,           2.
   1643,          23.,          18.,           3.
   1644,          23.,          18.,           4.
   1645,          23.,          18.,           5.
   1646,          23.,          18.,           6.
   1647,          23.,          18.,           7.
   1648,          23.,          18.,           8.
   1649,          23.,          18.,           9.
   1650,          23.,          18.,          10.
   1651,          23.,          17.,           0.
   1652,          23.,          17.,           1.
   1653,          23.,          17.,           2.
   1654,          23.,          17.,           3.
   1655,          23.,          17.,           4.
   1656,          23.,          17.,           5.
   1657,          23.,          17.,           6.
   1658,          23.,          17.,           7.
   1659,          23.,          17.,           8.
   1660,          23.,          17.,           9.
   1661,          23.,          17.,          10.
   1662,          23.,          16.,           0.
   1663,          23.,          16.,           1.
   1664,          23.,          16.,           2.
   1665,          23.,          16.,           3.
   1666,          23.,          16.,           4.
   1667,          23.,          16.,           5.
   1668,          23.,          16.,           6.
   1669,          23.,          16.,           7.
   1670,          23.,          16.,           8.
   1671,          23.,          16.,           9.
   1672,          23.,          16.,          10.
   1673,          23.,          15.,           0.
   1674,          23.,          15.,           1.
   1675,          23.,          15.,           2.
   1676,          23.,          15.,           3.
   1677,          23.,          15.,           4.
   1678,          23.,          15.,           5.
   1679,          23.,          15.,           6.
   1680,          23.,          15.,           7.
   1681,          23.,          15.,           8.
   1682,          23.,          15.,           9.
   1683,          23.,          15.,          10.
   1684,          23.,          14.,           0.
   1685,          23.,          14.,           1.
   1686,          23.,          14.,           2.
   1687,          23.,          14.,           3.
   1688,          23.,          14.,           4.
   1689,          23.,          14.,           5.
   1690,          23.,          14.,           6.
   1691,          23.,          14.,           7.
   1692,          23.,          14.,           8.
   1693,          23.,          14.,           9.
   1694,          23.,          14.,          10.
   1695,          23.,          13.,           0.
   1696,          23.,          13.,           1.
   1697,          23.,          13.,           2.
   1698,          23.,          13.,           3.
   1699,          23.,          13.,           4.
   1700,          23.,          13.,           5.
   1701,          23.,          13.,           6.
   1702,          23.,          13.,           7.
   1703,          23.,          13.,           8.
   1704,          23.,          13.,           9.
   1705,          23.,          13.,          10.
   1706,          23.,          12.,           0.
   1707,          23.,          12.,           1.
   1708,          23.,          12.,           2.
   1709,          23.,          12.,           3.
   1710,          23.,          12.,           4.
   1711,          23.,          12.,           5.
   1712,          23.,          12.,           6.
   1713,          23.,          12.,           7.
   1714,          23.,          12.,           8.
   1715,          23.,          12.,           9.
   1716,          23.,          12.,          10.
   1717,          23.,          11.,           0.
   1718,          23.,          11.,           1.
   1719,          23.,          11.,           2.
   1720,          23.,          11.,           3.
   1721,          23.,          11.,           4.
   1722,          23.,          11.,           5.
   1723,          23.,          11.,           6.
   1724,          23.,          11.,           7.
   1725,          23.,          11.,           8.
   1726,          23.,          11.,           9.
   1727,          23.,          11.,          10.
   1728,          23.,          10.,           0.
   1729,          23.,          10.,           1.
   1730,          23.,          10.,           2.
   1731,          23.,          10.,           3.
   1732,          23.,          10.,           4.
   1733,          23.,          10.,           5.
   1734,          23.,          10.,           6.
   1735,          23.,          10.,           7.
   1736,          23.,          10.,           8.
   1737,          23.,          10.,           9.
   1738,          23.,          10.,          10.
   1739,          23.,           9.,           0.
   1740,          23.,           9.,           1.
   1741,          23.,           9.,           2.
   1742,          23.,           9.,           3.
   1743,          23.,           9.,           4.
   1744,          23.,           9.,           5.
   1745,          23.,           9.,           6.
   1746,          23.,           9.,           7.
   1747,          23.,           9.,           8.
   1748,          23.,           9.,           9.
   1749,          23.,           9.,          10.
   1750,          23.,           8.,           0.
   1751,          23.,           8.,           1.
   1752,          23.,           8.,           2.
   1753,          23.,           8.,           3.
   1754,          23.,           8.,           4.
   1755,          23.,           8.,           5.
   1756,          23.,           8.,           6.
   1757,          23.,           8.,           7.
   1758,          23.,           8.,           8.
   1759,          23.,           8.,           9.
   1760,          23.,           8.,          10.
   1761,          23.,           7.,           0.
   1762,          23.,           7.,           1.
   1763,          23.,           7.,           2.
   1764,          23.,           7.,           3.
   1765,          23.,           7.,           4.
   1766,          23.,           7.,           5.
   1767,          23.,           7.,           6.
   1768,          23.,           7.,           7.
   1769,          23.,           7.,           8.
   1770,          23.,           7.,           9.
   1771,          23.,           7.,          10.
   1772,          23.,           6.,           0.
   1773,          23.,           6.,           1.
   1774,          23.,           6.,           2.
   1775,          23.,           6.,           3.
   1776,          23.,           6.,           4.
   1777,          23.,           6.,           5.
   1778,          23.,           6.,           6.
   1779,          23.,           6.,           7.
   1780,          23.,           6.,           8.
   1781,          23.,           6.,           9.
   1782,          23.,           6.,          10.
   1783,          23.,           5.,           0.
   1784,          23.,           5.,           1.
   1785,          23.,           5.,           2.
   1786,          23.,           5.,           3.
   1787,          23.,           5.,           4.
   1788,          23.,           5.,           5.
   1789,          23.,           5.,           6.
   1790,          23.,           5.,           7.
   1791,          23.,           5.,           8.
   1792,          23.,           5.,           9.
   1793,          23.,           5.,          10.
   1794,          23.,           4.,           0.
   1795,          23.,           4.,           1.
   1796,          23.,           4.,           2.
   1797,          23.,           4.,           3.
   1798,          23.,           4.,           4.
   1799,          23.,           4.,           5.
   1800,          23.,           4.,           6.
   1801,          23.,           4.,           7.
   1802,          23.,           4.,           8.
   1803,          23.,           4.,           9.
   1804,          23.,           4.,          10.
   1805,          23.,           3.,           0.
   1806,          23.,           3.,           1.
   1807,          23.,           3.,           2.
   1808,          23.,           3.,           3.
   1809,          23.,           3.,           4.
   1810,          23.,           3.,           5.
   1811,          23.,           3.,           6.
   1812,          23.,           3.,           7.
   1813,          23.,           3.,           8.
   1814,          23.,           3.,           9.
   1815,          23.,           3.,          10.
   1816,          23.,           2.,           0.
   1817,          23.,           2.,           1.
   1818,          23.,           2.,           2.
   1819,          23.,           2.,           3.
   1820,          23.,           2.,           4.
   1821,          23.,           2.,           5.
   1822,          23.,           2.,           6.
   1823,          23.,           2.,           7.
   1824,          23.,           2.,           8.
   1825,          23.,           2.,           9.
   1826,          23.,           2.,          10.
   1827,          23.,           1.,           0.
   1828,          23.,           1.,           1.
   1829,          23.,           1.,           2.
   1830,          23.,           1.,           3.
   1831,          23.,           1.,           4.
   1832,          23.,           1.,           5.
   1833,          23.,           1.,           6.
   1834,          23.,           1.,           7.
   1835,          23.,           1.,           8.
   1836,          23.,           1.,           9.
   1837,          23.,           1.,          10.
   1838,          23.,           0.,           0.
   1839,          23.,           0.,           1.
   1840,          23.,           0.,           2.
   1841,          23.,           0.,           3.
   1842,          23.,           0.,           4.
   1843,          23.,           0.,           5.
   1844,          23.,           0.,           6.
   1845,          23.,           0.,           7.
   1846,          23.,           0.,           8.
   1847,          23.,           0.,           9.
   1848,          23.,           0.,          10.
   1849,          22.,          20.,           0.
   1850,          22.,          20.,           1.
   1851,          22.,          20.,           2.
   1852,          22.,          20.,           3.
   1853,          22.,          20.,           4.
   1854,          22.,          20.,           5.
   1855,          22.,          20.,           6.
   1856,          22.,          20.,           7.
   1857,          22.,          20.,           8.
   1858,          22.,          20.,           9.
   1859,          22.,          20.,          10.
   1860,          22.,          19.,           0.
   1861,          22.,          19.,           1.
   1862,          22.,          19.,           2.
   1863,          22.,          19.,           3.
   1864,          22.,          19.,           4.
   1865,          22.,          19.,           5.
   1866,          22.,          19.,           6.
   1867,          22.,          19.,           7.
   1868,          22.,          19.,           8.
   1869,          22.,          19.,           9.
   1870,          22.,          19.,          10.
   1871,          22.,          18.,           0.
   1872,          22.,          18.,           1.
   1873,          22.,          18.,           2.
   1874,          22.,          18.,           3.
   1875,          22.,          18.,           4.
   1876,          22.,          18.,           5.
   1877,          22.,          18.,           6.
   1878,          22.,          18.,           7.
   1879,          22.,          18.,           8.
   1880,          22.,          18.,           9.
   1881,          22.,          18.,          10.
   1882,          22.,          17.,           0.
   1883,          22.,          17.,           1.
   1884,          22.,          17.,           2.
   1885,          22.,          17.,           3.
   1886,          22.,          17.,           4.
   1887,          22.,          17.,           5.
   1888,          22.,          17.,           6.
   1889,          22.,          17.,           7.
   1890,          22.,          17.,           8.
   1891,          22.,          17.,           9.
   1892,          22.,          17.,          10.
   1893,          22.,          16.,           0.
   1894,          22.,          16.,           1.
   1895,          22.,          16.,           2.
   1896,          22.,          16.,           3.
   1897,          22.,          16.,           4.
   1898,          22.,          16.,           5.
   1899,          22.,          16.,           6.
   1900,          22.,          16.,           7.
   1901,          22.,          16.,           8.
   1902,          22.,          16.,           9.
   1903,          22.,          16.,          10.
   1904,          22.,          15.,           0.
   1905,          22.,          15.,           1.
   1906,          22.,          15.,           2.
   1907,          22.,          15.,           3.
   1908,          22.,          15.,           4.
   1909,          22.,          15.,           5.
   1910,          22.,          15.,           6.
   1911,          22.,          15.,           7.
   1912,          22.,          15.,           8.
   1913,          22.,          15.,           9.
   1914,          22.,          15.,          10.
   1915,          22.,          14.,           0.
   1916,          22.,          14.,           1.
   1917,          22.,          14.,           2.
   1918,          22.,          14.,           3.
   1919,          22.,          14.,           4.
   1920,          22.,          14.,           5.
   1921,          22.,          14.,           6.
   1922,          22.,          14.,           7.
   1923,          22.,          14.,           8.
   1924,          22.,          14.,           9.
   1925,          22.,          14.,          10.
   1926,          22.,          13.,           0.
   1927,          22.,          13.,           1.
   1928,          22.,          13.,           2.
   1929,          22.,          13.,           3.
   1930,          22.,          13.,           4.
   1931,          22.,          13.,           5.
   1932,          22.,          13.,           6.
   1933,          22.,          13.,           7.
   1934,          22.,          13.,           8.
   1935,          22.,          13.,           9.
   1936,          22.,          13.,          10.
   1937,          22.,          12.,           0.
   1938,          22.,          12.,           1.
   1939,          22.,          12.,           2.
   1940,          22.,          12.,           3.
   1941,          22.,          12.,           4.
   1942,          22.,          12.,           5.
   1943,          22.,          12.,           6.
   1944,          22.,          12.,           7.
   1945,          22.,          12.,           8.
   1946,          22.,          12.,           9.
   1947,          22.,          12.,          10.
   1948,          22.,          11.,           0.
   1949,          22.,          11.,           1.
   1950,          22.,          11.,           2.
   1951,          22.,          11.,           3.
   1952,          22.,          11.,           4.
   1953,          22.,          11.,           5.
   1954,          22.,          11.,           6.
   1955,          22.,          11.,           7.
   1956,          22.,          11.,           8.
   1957,          22.,          11.,           9.
   1958,          22.,          11.,          10.
   1959,          22.,          10.,           0.
   1960,          22.,          10.,           1.
   1961,          22.,          10.,           2.
   1962,          22.,          10.,           3.
   1963,          22.,          10.,           4.
   1964,          22.,          10.,           5.
   1965,          22.,          10.,           6.
   1966,          22.,          10.,           7.
   1967,          22.,          10.,           8.
   1968,          22.,          10.,           9.
   1969,          22.,          10.,          10.
   1970,          22.,           9.,           0.
   1971,          22.,           9.,           1.
   1972,          22.,           9.,           2.
   1973,          22.,           9.,           3.
   1974,          22.,           9.,           4.
   1975,          22.,           9.,           5.
   1976,          22.,           9.,           6.
   1977,          22.,           9.,           7.
   1978,          22.,           9.,           8.
   1979,          22.,           9.,           9.
   1980,          22.,           9.,          10.
   1981,          22.,           8.,           0.
   1982,          22.,           8.,           1.
   1983,          22.,           8.,           2.
   1984,          22.,           8.,           3.
   1985,          22.,           8.,           4.
   1986,          22.,           8.,           5.
   1987,          22.,           8.,           6.
   1988,          22.,           8.,           7.
   1989,          22.,           8.,           8.
   1990,          22.,           8.,           9.
   1991,          22.,           8.,          10.
   1992,          22.,           7.,           0.
   1993,          22.,           7.,           1.
   1994,          22.,           7.,           2.
   1995,          22.,           7.,           3.
   1996,          22.,           7.,           4.
   1997,          22.,           7.,           5.
   1998,          22.,           7.,           6.
   1999,          22.,           7.,           7.
   2000,          22.,           7.,           8.
   2001,          22.,           7.,           9.
   2002,          22.,           7.,          10.
   2003,          22.,           6.,           0.
   2004,          22.,           6.,           1.
   2005,          22.,           6.,           2.
   2006,          22.,           6.,           3.
   2007,          22.,           6.,           4.
   2008,          22.,           6.,           5.
   2009,          22.,           6.,           6.
   2010,          22.,           6.,           7.
   2011,          22.,           6.,           8.
   2012,          22.,           6.,           9.
   2013,          22.,           6.,          10.
   2014,          22.,           5.,           0.
   2015,          22.,           5.,           1.
   2016,          22.,           5.,           2.
   2017,          22.,           5.,           3.
   2018,          22.,           5.,           4.
   2019,          22.,           5.,           5.
   2020,          22.,           5.,           6.
   2021,          22.,           5.,           7.
   2022,          22.,           5.,           8.
   2023,          22.,           5.,           9.
   2024,          22.,           5.,          10.
   2025,          22.,           4.,           0.
   2026,          22.,           4.,           1.
   2027,          22.,           4.,           2.
   2028,          22.,           4.,           3.
   2029,          22.,           4.,           4.
   2030,          22.,           4.,           5.
   2031,          22.,           4.,           6.
   2032,          22.,           4.,           7.
   2033,          22.,           4.,           8.
   2034,          22.,           4.,           9.
   2035,          22.,           4.,          10.
   2036,          22.,           3.,           0.
   2037,          22.,           3.,           1.
   2038,          22.,           3.,           2.
   2039,          22.,           3.,           3.
   2040,          22.,           3.,           4.
   2041,          22.,           3.,           5.
   2042,          22.,           3.,           6.
   2043,          22.,           3.,           7.
   2044,          22.,           3.,           8.
   2045,          22.,           3.,           9.
   2046,          22.,           3.,          10.
   2047,          22.,           2.,           0.
   2048,          22.,           2.,           1.
   2049,          22.,           2.,           2.
   2050,          22.,           2.,           3.
   2051,          22.,           2.,           4.
   2052,          22.,           2.,           5.
   2053,          22.,           2.,           6.
   2054,          22.,           2.,           7.
   2055,          22.,           2.,           8.
   2056,          22.,           2.,           9.
   2057,          22.,           2.,          10.
   2058,          22.,           1.,           0.
   2059,          22.,           1.,           1.
   2060,          22.,           1.,           2.
   2061,          22.,           1.,           3.
   2062,          22.,           1.,           4.
   2063,          22.,           1.,           5.
   2064,          22.,           1.,           6.
   2065,          22.,           1.,           7.
   2066,          22.,           1.,           8.
   2067,          22.,           1.,           9.
   2068,          22.,           1.,          10.
   2069,          22.,           0.,           0.
   2070,          22.,           0.,           1.
   2071,          22.,           0.,           2.
   2072,          22.,           0.,           3.
   2073,          22.,           0.,           4.
   2074,          22.,           0.,           5.
   2075,          22.,           0.,           6.
   2076,          22.,           0.,           7.
   2077,          22.,           0.,           8.
   2078,          22.,           0.,           9.
   2079,          22.,           0.,          10.
   2080,          21.,          20.,           0.
   2081,          21.,          20.,           1.
   2082,          21.,          20.,           2.
   2083,          21.,          20.,           3.
   2084,          21.,          20.,           4.
   2085,          21.,          20.,           5.
   2086,          21.,          20.,           6.
   2087,          21.,          20.,           7.
   2088,          21.,          20.,           8.
   2089,          21.,          20.,           9.
   2090,          21.,          20.,          10.
   2091,          21.,          19.,           0.
   2092,          21.,          19.,           1.
   2093,          21.,          19.,           2.
   2094,          21.,          19.,           3.
   2095,          21.,          19.,           4.
   2096,          21.,          19.,           5.
   2097,          21.,          19.,           6.
   2098,          21.,          19.,           7.
   2099,          21.,          19.,           8.
   2100,          21.,          19.,           9.
   2101,          21.,          19.,          10.
   2102,          21.,          18.,           0.
   2103,          21.,          18.,           1.
   2104,          21.,          18.,           2.
   2105,          21.,          18.,           3.
   2106,          21.,          18.,           4.
   2107,          21.,          18.,           5.
   2108,          21.,          18.,           6.
   2109,          21.,          18.,           7.
   2110,          21.,          18.,           8.
   2111,          21.,          18.,           9.
   2112,          21.,          18.,          10.
   2113,          21.,          17.,           0.
   2114,          21.,          17.,           1.
   2115,          21.,          17.,           2.
   2116,          21.,          17.,           3.
   2117,          21.,          17.,           4.
   2118,          21.,          17.,           5.
   2119,          21.,          17.,           6.
   2120,          21.,          17.,           7.
   2121,          21.,          17.,           8.
   2122,          21.,          17.,           9.
   2123,          21.,          17.,          10.
   2124,          21.,          16.,           0.
   2125,          21.,          16.,           1.
   2126,          21.,          16.,           2.
   2127,          21.,          16.,           3.
   2128,          21.,          16.,           4.
   2129,          21.,          16.,           5.
   2130,          21.,          16.,           6.
   2131,          21.,          16.,           7.
   2132,          21.,          16.,           8.
   2133,          21.,          16.,           9.
   2134,          21.,          16.,          10.
   2135,          21.,          15.,           0.
   2136,          21.,          15.,           1.
   2137,          21.,          15.,           2.
   2138,          21.,          15.,           3.
   2139,          21.,          15.,           4.
   2140,          21.,          15.,           5.
   2141,          21.,          15.,           6.
   2142,          21.,          15.,           7.
   2143,          21.,          15.,           8.
   2144,          21.,          15.,           9.
   2145,          21.,          15.,          10.
   2146,          21.,          14.,           0.
   2147,          21.,          14.,           1.
   2148,          21.,          14.,           2.
   2149,          21.,          14.,           3.
   2150,          21.,          14.,           4.
   2151,          21.,          14.,           5.
   2152,          21.,          14.,           6.
   2153,          21.,          14.,           7.
   2154,          21.,          14.,           8.
   2155,          21.,          14.,           9.
   2156,          21.,          14.,          10.
   2157,          21.,          13.,           0.
   2158,          21.,          13.,           1.
   2159,          21.,          13.,           2.
   2160,          21.,          13.,           3.
   2161,          21.,          13.,           4.
   2162,          21.,          13.,           5.
   2163,          21.,          13.,           6.
   2164,          21.,          13.,           7.
   2165,          21.,          13.,           8.
   2166,          21.,          13.,           9.
   2167,          21.,          13.,          10.
   2168,          21.,          12.,           0.
   2169,          21.,          12.,           1.
   2170,          21.,          12.,           2.
   2171,          21.,          12.,           3.
   2172,          21.,          12.,           4.
   2173,          21.,          12.,           5.
   2174,          21.,          12.,           6.
   2175,          21.,          12.,           7.
   2176,          21.,          12.,           8.
   2177,          21.,          12.,           9.
   2178,          21.,          12.,          10.
   2179,          21.,          11.,           0.
   2180,          21.,          11.,           1.
   2181,          21.,          11.,           2.
   2182,          21.,          11.,           3.
   2183,          21.,          11.,           4.
   2184,          21.,          11.,           5.
   2185,          21.,          11.,           6.
   2186,          21.,          11.,           7.
   2187,          21.,          11.,           8.
   2188,          21.,          11.,           9.
   2189,          21.,          11.,          10.
   2190,          21.,          10.,           0.
   2191,          21.,          10.,           1.
   2192,          21.,          10.,           2.
   2193,          21.,          10.,           3.
   2194,          21.,          10.,           4.
   2195,          21.,          10.,           5.
   2196,          21.,          10.,           6.
   2197,          21.,          10.,           7.
   2198,          21.,          10.,           8.
   2199,          21.,          10.,           9.
   2200,          21.,          10.,          10.
   2201,          21.,           9.,           0.
   2202,          21.,           9.,           1.
   2203,          21.,           9.,           2.
   2204,          21.,           9.,           3.
   2205,          21.,           9.,           4.
   2206,          21.,           9.,           5.
   2207,          21.,           9.,           6.
   2208,          21.,           9.,           7.
   2209,          21.,           9.,           8.
   2210,          21.,           9.,           9.
   2211,          21.,           9.,          10.
   2212,          21.,           8.,           0.
   2213,          21.,           8.,           1.
   2214,          21.,           8.,           2.
   2215,          21.,           8.,           3.
   2216,          21.,           8.,           4.
   2217,          21.,           8.,           5.
   2218,          21.,           8.,           6.
   2219,          21.,           8.,           7.
   2220,          21.,           8.,           8.
   2221,          21.,           8.,           9.
   2222,          21.,           8.,          10.
   2223,          21.,           7.,           0.
   2224,          21.,           7.,           1.
   2225,          21.,           7.,           2.
   2226,          21.,           7.,           3.
   2227,          21.,           7.,           4.
   2228,          21.,           7.,           5.
   2229,          21.,           7.,           6.
   2230,          21.,           7.,           7.
   2231,          21.,           7.,           8.
   2232,          21.,           7.,           9.
   2233,          21.,           7.,          10.
   2234,          21.,           6.,           0.
   2235,          21.,           6.,           1.
   2236,          21.,           6.,           2.
   2237,          21.,           6.,           3.
   2238,          21.,           6.,           4.
   2239,          21.,           6.,           5.
   2240,          21.,           6.,           6.
   2241,          21.,           6.,           7.
   2242,          21.,           6.,           8.
   2243,          21.,           6.,           9.
   2244,          21.,           6.,          10.
   2245,          21.,           5.,           0.
   2246,          21.,           5.,           1.
   2247,          21.,           5.,           2.
   2248,          21.,           5.,           3.
   2249,          21.,           5.,           4.
   2250,          21.,           5.,           5.
   2251,          21.,           5.,           6.
   2252,          21.,           5.,           7.
   2253,          21.,           5.,           8.
   2254,          21.,           5.,           9.
   2255,          21.,           5.,          10.
   2256,          21.,           4.,           0.
   2257,          21.,           4.,           1.
   2258,          21.,           4.,           2.
   2259,          21.,           4.,           3.
   2260,          21.,           4.,           4.
   2261,          21.,           4.,           5.
   2262,          21.,           4.,           6.
   2263,          21.,           4.,           7.
   2264,          21.,           4.,           8.
   2265,          21.,           4.,           9.
   2266,          21.,           4.,          10.
   2267,          21.,           3.,           0.
   2268,          21.,           3.,           1.
   2269,          21.,           3.,           2.
   2270,          21.,           3.,           3.
   2271,          21.,           3.,           4.
   2272,          21.,           3.,           5.
   2273,          21.,           3.,           6.
   2274,          21.,           3.,           7.
   2275,          21.,           3.,           8.
   2276,          21.,           3.,           9.
   2277,          21.,           3.,          10.
   2278,          21.,           2.,           0.
   2279,          21.,           2.,           1.
   2280,          21.,           2.,           2.
   2281,          21.,           2.,           3.
   2282,          21.,           2.,           4.
   2283,          21.,           2.,           5.
   2284,          21.,           2.,           6.
   2285,          21.,           2.,           7.
   2286,          21.,           2.,           8.
   2287,          21.,           2.,           9.
   2288,          21.,           2.,          10.
   2289,          21.,           1.,           0.
   2290,          21.,           1.,           1.
   2291,          21.,           1.,           2.
   2292,          21.,           1.,           3.
   2293,          21.,           1.,           4.
   2294,          21.,           1.,           5.
   2295,          21.,           1.,           6.
   2296,          21.,           1.,           7.
   2297,          21.,           1.,           8.
   2298,          21.,           1.,           9.
   2299,          21.,           1.,          10.
   2300,          21.,           0.,           0.
   2301,          21.,           0.,           1.
   2302,          21.,           0.,           2.
   2303,          21.,           0.,           3.
   2304,          21.,           0.,           4.
   2305,          21.,           0.,           5.
   2306,          21.,           0.,           6.
   2307,          21.,           0.,           7.
   2308,          21.,           0.,           8.
   2309,          21.,           0.,           9.
   2310,          21.,           0.,          10.
   2311,          20.,          20.,           0.
   2312,          20.,          20.,           1.
   2313,          20.,          20.,           2.
   2314,          20.,          20.,           3.
   2315,          20.,          20.,           4.
   2316,          20.,          20.,           5.
   2317,          20.,          20.,           6.
   2318,          20.,          20.,           7.
   2319,          20.,          20.,           8.
   2320,          20.,          20.,           9.
   2321,          20.,          20.,          10.
   2322,          20.,          19.,           0.
   2323,          20.,          19.,           1.
   2324,          20.,          19.,           2.
   2325,          20.,          19.,           3.
   2326,          20.,          19.,           4.
   2327,          20.,          19.,           5.
   2328,          20.,          19.,           6.
   2329,          20.,          19.,           7.
   2330,          20.,          19.,           8.
   2331,          20.,          19.,           9.
   2332,          20.,          19.,          10.
   2333,          20.,          18.,           0.
   2334,          20.,          18.,           1.
   2335,          20.,          18.,           2.
   2336,          20.,          18.,           3.
   2337,          20.,          18.,           4.
   2338,          20.,          18.,           5.
   2339,          20.,          18.,           6.
   2340,          20.,          18.,           7.
   2341,          20.,          18.,           8.
   2342,          20.,          18.,           9.
   2343,          20.,          18.,          10.
   2344,          20.,          17.,           0.
   2345,          20.,          17.,           1.
   2346,          20.,          17.,           2.
   2347,          20.,          17.,           3.
   2348,          20.,          17.,           4.
   2349,          20.,          17.,           5.
   2350,          20.,          17.,           6.
   2351,          20.,          17.,           7.
   2352,          20.,          17.,           8.
   2353,          20.,          17.,           9.
   2354,          20.,          17.,          10.
   2355,          20.,          16.,           0.
   2356,          20.,          16.,           1.
   2357,          20.,          16.,           2.
   2358,          20.,          16.,           3.
   2359,          20.,          16.,           4.
   2360,          20.,          16.,           5.
   2361,          20.,          16.,           6.
   2362,          20.,          16.,           7.
   2363,          20.,          16.,           8.
   2364,          20.,          16.,           9.
   2365,          20.,          16.,          10.
   2366,          20.,          15.,           0.
   2367,          20.,          15.,           1.
   2368,          20.,          15.,           2.
   2369,          20.,          15.,           3.
   2370,          20.,          15.,           4.
   2371,          20.,          15.,           5.
   2372,          20.,          15.,           6.
   2373,          20.,          15.,           7.
   2374,          20.,          15.,           8.
   2375,          20.,          15.,           9.
   2376,          20.,          15.,          10.
   2377,          20.,          14.,           0.
   2378,          20.,          14.,           1.
   2379,          20.,          14.,           2.
   2380,          20.,          14.,           3.
   2381,          20.,          14.,           4.
   2382,          20.,          14.,           5.
   2383,          20.,          14.,           6.
   2384,          20.,          14.,           7.
   2385,          20.,          14.,           8.
   2386,          20.,          14.,           9.
   2387,          20.,          14.,          10.
   2388,          20.,          13.,           0.
   2389,          20.,          13.,           1.
   2390,          20.,          13.,           2.
   2391,          20.,          13.,           3.
   2392,          20.,          13.,           4.
   2393,          20.,          13.,           5.
   2394,          20.,          13.,           6.
   2395,          20.,          13.,           7.
   2396,          20.,          13.,           8.
   2397,          20.,          13.,           9.
   2398,          20.,          13.,          10.
   2399,          20.,          12.,           0.
   2400,          20.,          12.,           1.
   2401,          20.,          12.,           2.
   2402,          20.,          12.,           3.
   2403,          20.,          12.,           4.
   2404,          20.,          12.,           5.
   2405,          20.,          12.,           6.
   2406,          20.,          12.,           7.
   2407,          20.,          12.,           8.
   2408,          20.,          12.,           9.
   2409,          20.,          12.,          10.
   2410,          20.,          11.,           0.
   2411,          20.,          11.,           1.
   2412,          20.,          11.,           2.
   2413,          20.,          11.,           3.
   2414,          20.,          11.,           4.
   2415,          20.,          11.,           5.
   2416,          20.,          11.,           6.
   2417,          20.,          11.,           7.
   2418,          20.,          11.,           8.
   2419,          20.,          11.,           9.
   2420,          20.,          11.,          10.
   2421,          20.,          10.,           0.
   2422,          20.,          10.,           1.
   2423,          20.,          10.,           2.
   2424,          20.,          10.,           3.
   2425,          20.,          10.,           4.
   2426,          20.,          10.,           5.
   2427,          20.,          10.,           6.
   2428,          20.,          10.,           7.
   2429,          20.,          10.,           8.
   2430,          20.,          10.,           9.
   2431,          20.,          10.,          10.
   2432,          20.,           9.,           0.
   2433,          20.,           9.,           1.
   2434,          20.,           9.,           2.
   2435,          20.,           9.,           3.
   2436,          20.,           9.,           4.
   2437,          20.,           9.,           5.
   2438,          20.,           9.,           6.
   2439,          20.,           9.,           7.
   2440,          20.,           9.,           8.
   2441,          20.,           9.,           9.
   2442,          20.,           9.,          10.
   2443,          20.,           8.,           0.
   2444,          20.,           8.,           1.
   2445,          20.,           8.,           2.
   2446,          20.,           8.,           3.
   2447,          20.,           8.,           4.
   2448,          20.,           8.,           5.
   2449,          20.,           8.,           6.
   2450,          20.,           8.,           7.
   2451,          20.,           8.,           8.
   2452,          20.,           8.,           9.
   2453,          20.,           8.,          10.
   2454,          20.,           7.,           0.
   2455,          20.,           7.,           1.
   2456,          20.,           7.,           2.
   2457,          20.,           7.,           3.
   2458,          20.,           7.,           4.
   2459,          20.,           7.,           5.
   2460,          20.,           7.,           6.
   2461,          20.,           7.,           7.
   2462,          20.,           7.,           8.
   2463,          20.,           7.,           9.
   2464,          20.,           7.,          10.
   2465,          20.,           6.,           0.
   2466,          20.,           6.,           1.
   2467,          20.,           6.,           2.
   2468,          20.,           6.,           3.
   2469,          20.,           6.,           4.
   2470,          20.,           6.,           5.
   2471,          20.,           6.,           6.
   2472,          20.,           6.,           7.
   2473,          20.,           6.,           8.
   2474,          20.,           6.,           9.
   2475,          20.,           6.,          10.
   2476,          20.,           5.,           0.
   2477,          20.,           5.,           1.
   2478,          20.,           5.,           2.
   2479,          20.,           5.,           3.
   2480,          20.,           5.,           4.
   2481,          20.,           5.,           5.
   2482,          20.,           5.,           6.
   2483,          20.,           5.,           7.
   2484,          20.,           5.,           8.
   2485,          20.,           5.,           9.
   2486,          20.,           5.,          10.
   2487,          20.,           4.,           0.
   2488,          20.,           4.,           1.
   2489,          20.,           4.,           2.
   2490,          20.,           4.,           3.
   2491,          20.,           4.,           4.
   2492,          20.,           4.,           5.
   2493,          20.,           4.,           6.
   2494,          20.,           4.,           7.
   2495,          20.,           4.,           8.
   2496,          20.,           4.,           9.
   2497,          20.,           4.,          10.
   2498,          20.,           3.,           0.
   2499,          20.,           3.,           1.
   2500,          20.,           3.,           2.
   2501,          20.,           3.,           3.
   2502,          20.,           3.,           4.
   2503,          20.,           3.,           5.
   2504,          20.,           3.,           6.
   2505,          20.,           3.,           7.
   2506,          20.,           3.,           8.
   2507,          20.,           3.,           9.
   2508,          20.,           3.,          10.
   2509,          20.,           2.,           0.
   2510,          20.,           2.,           1.
   2511,          20.,           2.,           2.
   2512,          20.,           2.,           3.
   2513,          20.,           2.,           4.
   2514,          20.,           2.,           5.
   2515,          20.,           2.,           6.
   2516,          20.,           2.,           7.
   2517,          20.,           2.,           8.
   2518,          20.,           2.,           9.
   2519,          20.,           2.,          10.
   2520,          20.,           1.,           0.
   2521,          20.,           1.,           1.
   2522,          20.,           1.,           2.
   2523,          20.,           1.,           3.
   2524,          20.,           1.,           4.
   2525,          20.,           1.,           5.
   2526,          20.,           1.,           6.
   2527,          20.,           1.,           7.
   2528,          20.,           1.,           8.
   2529,          20.,           1.,           9.
   2530,          20.,           1.,          10.
   2531,          20.,           0.,           0.
   2532,          20.,           0.,           1.
   2533,          20.,           0.,           2.
   2534,          20.,           0.,           3.
   2535,          20.,           0.,           4.
   2536,          20.,           0.,           5.
   2537,          20.,           0.,           6.
   2538,          20.,           0.,           7.
   2539,          20.,           0.,           8.
   2540,          20.,           0.,           9.
   2541,          20.,           0.,          10.
   2542,          19.,          20.,           0.
   2543,          19.,          20.,           1.
   2544,          19.,          20.,           2.
   2545,          19.,          20.,           3.
   2546,          19.,          20.,           4.
   2547,          19.,          20.,           5.
   2548,          19.,          20.,           6.
   2549,          19.,          20.,           7.
   2550,          19.,          20.,           8.
   2551,          19.,          20.,           9.
   2552,          19.,          20.,          10.
   2553,          19.,          19.,           0.
   2554,          19.,          19.,           1.
   2555,          19.,          19.,           2.
   2556,          19.,          19.,           3.
   2557,          19.,          19.,           4.
   2558,          19.,          19.,           5.
   2559,          19.,          19.,           6.
   2560,          19.,          19.,           7.
   2561,          19.,          19.,           8.
   2562,          19.,          19.,           9.
   2563,          19.,          19.,          10.
   2564,          19.,          18.,           0.
   2565,          19.,          18.,           1.
   2566,          19.,          18.,           2.
   2567,          19.,          18.,           3.
   2568,          19.,          18.,           4.
   2569,          19.,          18.,           5.
   2570,          19.,          18.,           6.
   2571,          19.,          18.,           7.
   2572,          19.,          18.,           8.
   2573,          19.,          18.,           9.
   2574,          19.,          18.,          10.
   2575,          19.,          17.,           0.
   2576,          19.,          17.,           1.
   2577,          19.,          17.,           2.
   2578,          19.,          17.,           3.
   2579,          19.,          17.,           4.
   2580,          19.,          17.,           5.
   2581,          19.,          17.,           6.
   2582,          19.,          17.,           7.
   2583,          19.,          17.,           8.
   2584,          19.,          17.,           9.
   2585,          19.,          17.,          10.
   2586,          19.,          16.,           0.
   2587,          19.,          16.,           1.
   2588,          19.,          16.,           2.
   2589,          19.,          16.,           3.
   2590,          19.,          16.,           4.
   2591,          19.,          16.,           5.
   2592,          19.,          16.,           6.
   2593,          19.,          16.,           7.
   2594,          19.,          16.,           8.
   2595,          19.,          16.,           9.
   2596,          19.,          16.,          10.
   2597,          19.,          15.,           0.
   2598,          19.,          15.,           1.
   2599,          19.,          15.,           2.
   2600,          19.,          15.,           3.
   2601,          19.,          15.,           4.
   2602,          19.,          15.,           5.
   2603,          19.,          15.,           6.
   2604,          19.,          15.,           7.
   2605,          19.,          15.,           8.
   2606,          19.,          15.,           9.
   2607,          19.,          15.,          10.
   2608,          19.,          14.,           0.
   2609,          19.,          14.,           1.
   2610,          19.,          14.,           2.
   2611,          19.,          14.,           3.
   2612,          19.,          14.,           4.
   2613,          19.,          14.,           5.
   2614,          19.,          14.,           6.
   2615,          19.,          14.,           7.
   2616,          19.,          14.,           8.
   2617,          19.,          14.,           9.
   2618,          19.,          14.,          10.
   2619,          19.,          13.,           0.
   2620,          19.,          13.,           1.
   2621,          19.,          13.,           2.
   2622,          19.,          13.,           3.
   2623,          19.,          13.,           4.
   2624,          19.,          13.,           5.
   2625,          19.,          13.,           6.
   2626,          19.,          13.,           7.
   2627,          19.,          13.,           8.
   2628,          19.,          13.,           9.
   2629,          19.,          13.,          10.
   2630,          19.,          12.,           0.
   2631,          19.,          12.,           1.
   2632,          19.,          12.,           2.
   2633,          19.,          12.,           3.
   2634,          19.,          12.,           4.
   2635,          19.,          12.,           5.
   2636,          19.,          12.,           6.
   2637,          19.,          12.,           7.
   2638,          19.,          12.,           8.
   2639,          19.,          12.,           9.
   2640,          19.,          12.,          10.
   2641,          19.,          11.,           0.
   2642,          19.,          11.,           1.
   2643,          19.,          11.,           2.
   2644,          19.,          11.,           3.
   2645,          19.,          11.,           4.
   2646,          19.,          11.,           5.
   2647,          19.,          11.,           6.
   2648,          19.,          11.,           7.
   2649,          19.,          11.,           8.
   2650,          19.,          11.,           9.
   2651,          19.,          11.,          10.
   2652,          19.,          10.,           0.
   2653,          19.,          10.,           1.
   2654,          19.,          10.,           2.
   2655,          19.,          10.,           3.
   2656,          19.,          10.,           4.
   2657,          19.,          10.,           5.
   2658,          19.,          10.,           6.
   2659,          19.,          10.,           7.
   2660,          19.,          10.,           8.
   2661,          19.,          10.,           9.
   2662,          19.,          10.,          10.
   2663,          19.,           9.,           0.
   2664,          19.,           9.,           1.
   2665,          19.,           9.,           2.
   2666,          19.,           9.,           3.
   2667,          19.,           9.,           4.
   2668,          19.,           9.,           5.
   2669,          19.,           9.,           6.
   2670,          19.,           9.,           7.
   2671,          19.,           9.,           8.
   2672,          19.,           9.,           9.
   2673,          19.,           9.,          10.
   2674,          19.,           8.,           0.
   2675,          19.,           8.,           1.
   2676,          19.,           8.,           2.
   2677,          19.,           8.,           3.
   2678,          19.,           8.,           4.
   2679,          19.,           8.,           5.
   2680,          19.,           8.,           6.
   2681,          19.,           8.,           7.
   2682,          19.,           8.,           8.
   2683,          19.,           8.,           9.
   2684,          19.,           8.,          10.
   2685,          19.,           7.,           0.
   2686,          19.,           7.,           1.
   2687,          19.,           7.,           2.
   2688,          19.,           7.,           3.
   2689,          19.,           7.,           4.
   2690,          19.,           7.,           5.
   2691,          19.,           7.,           6.
   2692,          19.,           7.,           7.
   2693,          19.,           7.,           8.
   2694,          19.,           7.,           9.
   2695,          19.,           7.,          10.
   2696,          19.,           6.,           0.
   2697,          19.,           6.,           1.
   2698,          19.,           6.,           2.
   2699,          19.,           6.,           3.
   2700,          19.,           6.,           4.
   2701,          19.,           6.,           5.
   2702,          19.,           6.,           6.
   2703,          19.,           6.,           7.
   2704,          19.,           6.,           8.
   2705,          19.,           6.,           9.
   2706,          19.,           6.,          10.
   2707,          19.,           5.,           0.
   2708,          19.,           5.,           1.
   2709,          19.,           5.,           2.
   2710,          19.,           5.,           3.
   2711,          19.,           5.,           4.
   2712,          19.,           5.,           5.
   2713,          19.,           5.,           6.
   2714,          19.,           5.,           7.
   2715,          19.,           5.,           8.
   2716,          19.,           5.,           9.
   2717,          19.,           5.,          10.
   2718,          19.,           4.,           0.
   2719,          19.,           4.,           1.
   2720,          19.,           4.,           2.
   2721,          19.,           4.,           3.
   2722,          19.,           4.,           4.
   2723,          19.,           4.,           5.
   2724,          19.,           4.,           6.
   2725,          19.,           4.,           7.
   2726,          19.,           4.,           8.
   2727,          19.,           4.,           9.
   2728,          19.,           4.,          10.
   2729,          19.,           3.,           0.
   2730,          19.,           3.,           1.
   2731,          19.,           3.,           2.
   2732,          19.,           3.,           3.
   2733,          19.,           3.,           4.
   2734,          19.,           3.,           5.
   2735,          19.,           3.,           6.
   2736,          19.,           3.,           7.
   2737,          19.,           3.,           8.
   2738,          19.,           3.,           9.
   2739,          19.,           3.,          10.
   2740,          19.,           2.,           0.
   2741,          19.,           2.,           1.
   2742,          19.,           2.,           2.
   2743,          19.,           2.,           3.
   2744,          19.,           2.,           4.
   2745,          19.,           2.,           5.
   2746,          19.,           2.,           6.
   2747,          19.,           2.,           7.
   2748,          19.,           2.,           8.
   2749,          19.,           2.,           9.
   2750,          19.,           2.,          10.
   2751,          19.,           1.,           0.
   2752,          19.,           1.,           1.
   2753,          19.,           1.,           2.
   2754,          19.,           1.,           3.
   2755,          19.,           1.,           4.
   2756,          19.,           1.,           5.
   2757,          19.,           1.,           6.
   2758,          19.,           1.,           7.
   2759,          19.,           1.,           8.
   2760,          19.,           1.,           9.
   2761,          19.,           1.,          10.
   2762,          19.,           0.,           0.
   2763,          19.,           0.,           1.
   2764,          19.,           0.,           2.
   2765,          19.,           0.,           3.
   2766,          19.,           0.,           4.
   2767,          19.,           0.,           5.
   2768,          19.,           0.,           6.
   2769,          19.,           0.,           7.
   2770,          19.,           0.,           8.
   2771,          19.,           0.,           9.
   2772,          19.,           0.,          10.
   2773,          18.,          20.,           0.
   2774,          18.,          20.,           1.
   2775,          18.,          20.,           2.
   2776,          18.,          20.,           3.
   2777,          18.,          20.,           4.
   2778,          18.,          20.,           5.
   2779,          18.,          20.,           6.
   2780,          18.,          20.,           7.
   2781,          18.,          20.,           8.
   2782,          18.,          20.,           9.
   2783,          18.,          20.,          10.
   2784,          18.,          19.,           0.
   2785,          18.,          19.,           1.
   2786,          18.,          19.,           2.
   2787,          18.,          19.,           3.
   2788,          18.,          19.,           4.
   2789,          18.,          19.,           5.
   2790,          18.,          19.,           6.
   2791,          18.,          19.,           7.
   2792,          18.,          19.,           8.
   2793,          18.,          19.,           9.
   2794,          18.,          19.,          10.
   2795,          18.,          18.,           0.
   2796,          18.,          18.,           1.
   2797,          18.,          18.,           2.
   2798,          18.,          18.,           3.
   2799,          18.,          18.,           4.
   2800,          18.,          18.,           5.
   2801,          18.,          18.,           6.
   2802,          18.,          18.,           7.
   2803,          18.,          18.,           8.
   2804,          18.,          18.,           9.
   2805,          18.,          18.,          10.
   2806,          18.,          17.,           0.
   2807,          18.,          17.,           1.
   2808,          18.,          17.,           2.
   2809,          18.,          17.,           3.
   2810,          18.,          17.,           4.
   2811,          18.,          17.,           5.
   2812,          18.,          17.,           6.
   2813,          18.,          17.,           7.
   2814,          18.,          17.,           8.
   2815,          18.,          17.,           9.
   2816,          18.,          17.,          10.
   2817,          18.,          16.,           0.
   2818,          18.,          16.,           1.
   2819,          18.,          16.,           2.
   2820,          18.,          16.,           3.
   2821,          18.,          16.,           4.
   2822,          18.,          16.,           5.
   2823,          18.,          16.,           6.
   2824,          18.,          16.,           7.
   2825,          18.,          16.,           8.
   2826,          18.,          16.,           9.
   2827,          18.,          16.,          10.
   2828,          18.,          15.,           0.
   2829,          18.,          15.,           1.
   2830,          18.,          15.,           2.
   2831,          18.,          15.,           3.
   2832,          18.,          15.,           4.
   2833,          18.,          15.,           5.
   2834,          18.,          15.,           6.
   2835,          18.,          15.,           7.
   2836,          18.,          15.,           8.
   2837,          18.,          15.,           9.
   2838,          18.,          15.,          10.
   2839,          18.,          14.,           0.
   2840,          18.,          14.,           1.
   2841,          18.,          14.,           2.
   2842,          18.,          14.,           3.
   2843,          18.,          14.,           4.
   2844,          18.,          14.,           5.
   2845,          18.,          14.,           6.
   2846,          18.,          14.,           7.
   2847,          18.,          14.,           8.
   2848,          18.,          14.,           9.
   2849,          18.,          14.,          10.
   2850,          18.,          13.,           0.
   2851,          18.,          13.,           1.
   2852,          18.,          13.,           2.
   2853,          18.,          13.,           3.
   2854,          18.,          13.,           4.
   2855,          18.,          13.,           5.
   2856,          18.,          13.,           6.
   2857,          18.,          13.,           7.
   2858,          18.,          13.,           8.
   2859,          18.,          13.,           9.
   2860,          18.,          13.,          10.
   2861,          18.,          12.,           0.
   2862,          18.,          12.,           1.
   2863,          18.,          12.,           2.
   2864,          18.,          12.,           3.
   2865,          18.,          12.,           4.
   2866,          18.,          12.,           5.
   2867,          18.,          12.,           6.
   2868,          18.,          12.,           7.
   2869,          18.,          12.,           8.
   2870,          18.,          12.,           9.
   2871,          18.,          12.,          10.
   2872,          18.,          11.,           0.
   2873,          18.,          11.,           1.
   2874,          18.,          11.,           2.
   2875,          18.,          11.,           3.
   2876,          18.,          11.,           4.
   2877,          18.,          11.,           5.
   2878,          18.,          11.,           6.
   2879,          18.,          11.,           7.
   2880,          18.,          11.,           8.
   2881,          18.,          11.,           9.
   2882,          18.,          11.,          10.
   2883,          18.,          10.,           0.
   2884,          18.,          10.,           1.
   2885,          18.,          10.,           2.
   2886,          18.,          10.,           3.
   2887,          18.,          10.,           4.
   2888,          18.,          10.,           5.
   2889,          18.,          10.,           6.
   2890,          18.,          10.,           7.
   2891,          18.,          10.,           8.
   2892,          18.,          10.,           9.
   2893,          18.,          10.,          10.
   2894,          18.,           9.,           0.
   2895,          18.,           9.,           1.
   2896,          18.,           9.,           2.
   2897,          18.,           9.,           3.
   2898,          18.,           9.,           4.
   2899,          18.,           9.,           5.
   2900,          18.,           9.,           6.
   2901,          18.,           9.,           7.
   2902,          18.,           9.,           8.
   2903,          18.,           9.,           9.
   2904,          18.,           9.,          10.
   2905,          18.,           8.,           0.
   2906,          18.,           8.,           1.
   2907,          18.,           8.,           2.
   2908,          18.,           8.,           3.
   2909,          18.,           8.,           4.
   2910,          18.,           8.,           5.
   2911,          18.,           8.,           6.
   2912,          18.,           8.,           7.
   2913,          18.,           8.,           8.
   2914,          18.,           8.,           9.
   2915,          18.,           8.,          10.
   2916,          18.,           7.,           0.
   2917,          18.,           7.,           1.
   2918,          18.,           7.,           2.
   2919,          18.,           7.,           3.
   2920,          18.,           7.,           4.
   2921,          18.,           7.,           5.
   2922,          18.,           7.,           6.
   2923,          18.,           7.,           7.
   2924,          18.,           7.,           8.
   2925,          18.,           7.,           9.
   2926,          18.,           7.,          10.
   2927,          18.,           6.,           0.
   2928,          18.,           6.,           1.
   2929,          18.,           6.,           2.
   2930,          18.,           6.,           3.
   2931,          18.,           6.,           4.
   2932,          18.,           6.,           5.
   2933,          18.,           6.,           6.
   2934,          18.,           6.,           7.
   2935,          18.,           6.,           8.
   2936,          18.,           6.,           9.
   2937,          18.,           6.,          10.
   2938,          18.,           5.,           0.
   2939,          18.,           5.,           1.
   2940,          18.,           5.,           2.
   2941,          18.,           5.,           3.
   2942,          18.,           5.,           4.
   2943,          18.,           5.,           5.
   2944,          18.,           5.,           6.
   2945,          18.,           5.,           7.
   2946,          18.,           5.,           8.
   2947,          18.,           5.,           9.
   2948,          18.,           5.,          10.
   2949,          18.,           4.,           0.
   2950,          18.,           4.,           1.
   2951,          18.,           4.,           2.
   2952,          18.,           4.,           3.
   2953,          18.,           4.,           4.
   2954,          18.,           4.,           5.
   2955,          18.,           4.,           6.
   2956,          18.,           4.,           7.
   2957,          18.,           4.,           8.
   2958,          18.,           4.,           9.
   2959,          18.,           4.,          10.
   2960,          18.,           3.,           0.
   2961,          18.,           3.,           1.
   2962,          18.,           3.,           2.
   2963,          18.,           3.,           3.
   2964,          18.,           3.,           4.
   2965,          18.,           3.,           5.
   2966,          18.,           3.,           6.
   2967,          18.,           3.,           7.
   2968,          18.,           3.,           8.
   2969,          18.,           3.,           9.
   2970,          18.,           3.,          10.
   2971,          18.,           2.,           0.
   2972,          18.,           2.,           1.
   2973,          18.,           2.,           2.
   2974,          18.,           2.,           3.
   2975,          18.,           2.,           4.
   2976,          18.,           2.,           5.
   2977,          18.,           2.,           6.
   2978,          18.,           2.,           7.
   2979,          18.,           2.,           8.
   2980,          18.,           2.,           9.
   2981,          18.,           2.,          10.
   2982,          18.,           1.,           0.
   2983,          18.,           1.,           1.
   2984,          18.,           1.,           2.
   2985,          18.,           1.,           3.
   2986,          18.,           1.,           4.
   2987,          18.,           1.,           5.
   2988,          18.,           1.,           6.
   2989,          18.,           1.,           7.
   2990,          18.,           1.,           8.
   2991,          18.,           1.,           9.
   2992,          18.,           1.,          10.
   2993,          18.,           0.,           0.
   2994,          18.,           0.,           1.
   2995,          18.,           0.,           2.
   2996,          18.,           0.,           3.
   2997,          18.,           0.,           4.
   2998,          18.,           0.,           5.
   2999,          18.,           0.,           6.
   3000,          18.,           0.,           7.
   3001,          18.,           0.,           8.
   3002,          18.,           0.,           9.
   3003,          18.,           0.,          10.
   3004,          17.,          20.,           0.
   3005,          17.,          20.,           1.
   3006,          17.,          20.,           2.
   3007,          17.,          20.,           3.
   3008,          17.,          20.,           4.
   3009,          17.,          20.,           5.
   3010,          17.,          20.,           6.
   3011,          17.,          20.,           7.
   3012,          17.,          20.,           8.
   3013,          17.,          20.,           9.
   3014,          17.,          20.,          10.
   3015,          17.,          19.,           0.
   3016,          17.,          19.,           1.
   3017,          17.,          19.,           2.
   3018,          17.,          19.,           3.
   3019,          17.,          19.,           4.
   3020,          17.,          19.,           5.
   3021,          17.,          19.,           6.
   3022,          17.,          19.,           7.
   3023,          17.,          19.,           8.
   3024,          17.,          19.,           9.
   3025,          17.,          19.,          10.
   3026,          17.,          18.,           0.
   3027,          17.,          18.,           1.
   3028,          17.,          18.,           2.
   3029,          17.,          18.,           3.
   3030,          17.,          18.,           4.
   3031,          17.,          18.,           5.
   3032,          17.,          18.,           6.
   3033,          17.,          18.,           7.
   3034,          17.,          18.,           8.
   3035,          17.,          18.,           9.
   3036,          17.,          18.,          10.
   3037,          17.,          17.,           0.
   3038,          17.,          17.,           1.
   3039,          17.,          17.,           2.
   3040,          17.,          17.,           3.
   3041,          17.,          17.,           4.
   3042,          17.,          17.,           5.
   3043,          17.,          17.,           6.
   3044,          17.,          17.,           7.
   3045,          17.,          17.,           8.
   3046,          17.,          17.,           9.
   3047,          17.,          17.,          10.
   3048,          17.,          16.,           0.
   3049,          17.,          16.,           1.
   3050,          17.,          16.,           2.
   3051,          17.,          16.,           3.
   3052,          17.,          16.,           4.
   3053,          17.,          16.,           5.
   3054,          17.,          16.,           6.
   3055,          17.,          16.,           7.
   3056,          17.,          16.,           8.
   3057,          17.,          16.,           9.
   3058,          17.,          16.,          10.
   3059,          17.,          15.,           0.
   3060,          17.,          15.,           1.
   3061,          17.,          15.,           2.
   3062,          17.,          15.,           3.
   3063,          17.,          15.,           4.
   3064,          17.,          15.,           5.
   3065,          17.,          15.,           6.
   3066,          17.,          15.,           7.
   3067,          17.,          15.,           8.
   3068,          17.,          15.,           9.
   3069,          17.,          15.,          10.
   3070,          17.,          14.,           0.
   3071,          17.,          14.,           1.
   3072,          17.,          14.,           2.
   3073,          17.,          14.,           3.
   3074,          17.,          14.,           4.
   3075,          17.,          14.,           5.
   3076,          17.,          14.,           6.
   3077,          17.,          14.,           7.
   3078,          17.,          14.,           8.
   3079,          17.,          14.,           9.
   3080,          17.,          14.,          10.
   3081,          17.,          13.,           0.
   3082,          17.,          13.,           1.
   3083,          17.,          13.,           2.
   3084,          17.,          13.,           3.
   3085,          17.,          13.,           4.
   3086,          17.,          13.,           5.
   3087,          17.,          13.,           6.
   3088,          17.,          13.,           7.
   3089,          17.,          13.,           8.
   3090,          17.,          13.,           9.
   3091,          17.,          13.,          10.
   3092,          17.,          12.,           0.
   3093,          17.,          12.,           1.
   3094,          17.,          12.,           2.
   3095,          17.,          12.,           3.
   3096,          17.,          12.,           4.
   3097,          17.,          12.,           5.
   3098,          17.,          12.,           6.
   3099,          17.,          12.,           7.
   3100,          17.,          12.,           8.
   3101,          17.,          12.,           9.
   3102,          17.,          12.,          10.
   3103,          17.,          11.,           0.
   3104,          17.,          11.,           1.
   3105,          17.,          11.,           2.
   3106,          17.,          11.,           3.
   3107,          17.,          11.,           4.
   3108,          17.,          11.,           5.
   3109,          17.,          11.,           6.
   3110,          17.,          11.,           7.
   3111,          17.,          11.,           8.
   3112,          17.,          11.,           9.
   3113,          17.,          11.,          10.
   3114,          17.,          10.,           0.
   3115,          17.,          10.,           1.
   3116,          17.,          10.,           2.
   3117,          17.,          10.,           3.
   3118,          17.,          10.,           4.
   3119,          17.,          10.,           5.
   3120,          17.,          10.,           6.
   3121,          17.,          10.,           7.
   3122,          17.,          10.,           8.
   3123,          17.,          10.,           9.
   3124,          17.,          10.,          10.
   3125,          17.,           9.,           0.
   3126,          17.,           9.,           1.
   3127,          17.,           9.,           2.
   3128,          17.,           9.,           3.
   3129,          17.,           9.,           4.
   3130,          17.,           9.,           5.
   3131,          17.,           9.,           6.
   3132,          17.,           9.,           7.
   3133,          17.,           9.,           8.
   3134,          17.,           9.,           9.
   3135,          17.,           9.,          10.
   3136,          17.,           8.,           0.
   3137,          17.,           8.,           1.
   3138,          17.,           8.,           2.
   3139,          17.,           8.,           3.
   3140,          17.,           8.,           4.
   3141,          17.,           8.,           5.
   3142,          17.,           8.,           6.
   3143,          17.,           8.,           7.
   3144,          17.,           8.,           8.
   3145,          17.,           8.,           9.
   3146,          17.,           8.,          10.
   3147,          17.,           7.,           0.
   3148,          17.,           7.,           1.
   3149,          17.,           7.,           2.
   3150,          17.,           7.,           3.
   3151,          17.,           7.,           4.
   3152,          17.,           7.,           5.
   3153,          17.,           7.,           6.
   3154,          17.,           7.,           7.
   3155,          17.,           7.,           8.
   3156,          17.,           7.,           9.
   3157,          17.,           7.,          10.
   3158,          17.,           6.,           0.
   3159,          17.,           6.,           1.
   3160,          17.,           6.,           2.
   3161,          17.,           6.,           3.
   3162,          17.,           6.,           4.
   3163,          17.,           6.,           5.
   3164,          17.,           6.,           6.
   3165,          17.,           6.,           7.
   3166,          17.,           6.,           8.
   3167,          17.,           6.,           9.
   3168,          17.,           6.,          10.
   3169,          17.,           5.,           0.
   3170,          17.,           5.,           1.
   3171,          17.,           5.,           2.
   3172,          17.,           5.,           3.
   3173,          17.,           5.,           4.
   3174,          17.,           5.,           5.
   3175,          17.,           5.,           6.
   3176,          17.,           5.,           7.
   3177,          17.,           5.,           8.
   3178,          17.,           5.,           9.
   3179,          17.,           5.,          10.
   3180,          17.,           4.,           0.
   3181,          17.,           4.,           1.
   3182,          17.,           4.,           2.
   3183,          17.,           4.,           3.
   3184,          17.,           4.,           4.
   3185,          17.,           4.,           5.
   3186,          17.,           4.,           6.
   3187,          17.,           4.,           7.
   3188,          17.,           4.,           8.
   3189,          17.,           4.,           9.
   3190,          17.,           4.,          10.
   3191,          17.,           3.,           0.
   3192,          17.,           3.,           1.
   3193,          17.,           3.,           2.
   3194,          17.,           3.,           3.
   3195,          17.,           3.,           4.
   3196,          17.,           3.,           5.
   3197,          17.,           3.,           6.
   3198,          17.,           3.,           7.
   3199,          17.,           3.,           8.
   3200,          17.,           3.,           9.
   3201,          17.,           3.,          10.
   3202,          17.,           2.,           0.
   3203,          17.,           2.,           1.
   3204,          17.,           2.,           2.
   3205,          17.,           2.,           3.
   3206,          17.,           2.,           4.
   3207,          17.,           2.,           5.
   3208,          17.,           2.,           6.
   3209,          17.,           2.,           7.
   3210,          17.,           2.,           8.
   3211,          17.,           2.,           9.
   3212,          17.,           2.,          10.
   3213,          17.,           1.,           0.
   3214,          17.,           1.,           1.
   3215,          17.,           1.,           2.
   3216,          17.,           1.,           3.
   3217,          17.,           1.,           4.
   3218,          17.,           1.,           5.
   3219,          17.,           1.,           6.
   3220,          17.,           1.,           7.
   3221,          17.,           1.,           8.
   3222,          17.,           1.,           9.
   3223,          17.,           1.,          10.
   3224,          17.,           0.,           0.
   3225,          17.,           0.,           1.
   3226,          17.,           0.,           2.
   3227,          17.,           0.,           3.
   3228,          17.,           0.,           4.
   3229,          17.,           0.,           5.
   3230,          17.,           0.,           6.
   3231,          17.,           0.,           7.
   3232,          17.,           0.,           8.
   3233,          17.,           0.,           9.
   3234,          17.,           0.,          10.
   3235,          16.,          20.,           0.
   3236,          16.,          20.,           1.
   3237,          16.,          20.,           2.
   3238,          16.,          20.,           3.
   3239,          16.,          20.,           4.
   3240,          16.,          20.,           5.
   3241,          16.,          20.,           6.
   3242,          16.,          20.,           7.
   3243,          16.,          20.,           8.
   3244,          16.,          20.,           9.
   3245,          16.,          20.,          10.
   3246,          16.,          19.,           0.
   3247,          16.,          19.,           1.
   3248,          16.,          19.,           2.
   3249,          16.,          19.,           3.
   3250,          16.,          19.,           4.
   3251,          16.,          19.,           5.
   3252,          16.,          19.,           6.
   3253,          16.,          19.,           7.
   3254,          16.,          19.,           8.
   3255,          16.,          19.,           9.
   3256,          16.,          19.,          10.
   3257,          16.,          18.,           0.
   3258,          16.,          18.,           1.
   3259,          16.,          18.,           2.
   3260,          16.,          18.,           3.
   3261,          16.,          18.,           4.
   3262,          16.,          18.,           5.
   3263,          16.,          18.,           6.
   3264,          16.,          18.,           7.
   3265,          16.,          18.,           8.
   3266,          16.,          18.,           9.
   3267,          16.,          18.,          10.
   3268,          16.,          17.,           0.
   3269,          16.,          17.,           1.
   3270,          16.,          17.,           2.
   3271,          16.,          17.,           3.
   3272,          16.,          17.,           4.
   3273,          16.,          17.,           5.
   3274,          16.,          17.,           6.
   3275,          16.,          17.,           7.
   3276,          16.,          17.,           8.
   3277,          16.,          17.,           9.
   3278,          16.,          17.,          10.
   3279,          16.,          16.,           0.
   3280,          16.,          16.,           1.
   3281,          16.,          16.,           2.
   3282,          16.,          16.,           3.
   3283,          16.,          16.,           4.
   3284,          16.,          16.,           5.
   3285,          16.,          16.,           6.
   3286,          16.,          16.,           7.
   3287,          16.,          16.,           8.
   3288,          16.,          16.,           9.
   3289,          16.,          16.,          10.
   3290,          16.,          15.,           0.
   3291,          16.,          15.,           1.
   3292,          16.,          15.,           2.
   3293,          16.,          15.,           3.
   3294,          16.,          15.,           4.
   3295,          16.,          15.,           5.
   3296,          16.,          15.,           6.
   3297,          16.,          15.,           7.
   3298,          16.,          15.,           8.
   3299,          16.,          15.,           9.
   3300,          16.,          15.,          10.
   3301,          16.,          14.,           0.
   3302,          16.,          14.,           1.
   3303,          16.,          14.,           2.
   3304,          16.,          14.,           3.
   3305,          16.,          14.,           4.
   3306,          16.,          14.,           5.
   3307,          16.,          14.,           6.
   3308,          16.,          14.,           7.
   3309,          16.,          14.,           8.
   3310,          16.,          14.,           9.
   3311,          16.,          14.,          10.
   3312,          16.,          13.,           0.
   3313,          16.,          13.,           1.
   3314,          16.,          13.,           2.
   3315,          16.,          13.,           3.
   3316,          16.,          13.,           4.
   3317,          16.,          13.,           5.
   3318,          16.,          13.,           6.
   3319,          16.,          13.,           7.
   3320,          16.,          13.,           8.
   3321,          16.,          13.,           9.
   3322,          16.,          13.,          10.
   3323,          16.,          12.,           0.
   3324,          16.,          12.,           1.
   3325,          16.,          12.,           2.
   3326,          16.,          12.,           3.
   3327,          16.,          12.,           4.
   3328,          16.,          12.,           5.
   3329,          16.,          12.,           6.
   3330,          16.,          12.,           7.
   3331,          16.,          12.,           8.
   3332,          16.,          12.,           9.
   3333,          16.,          12.,          10.
   3334,          16.,          11.,           0.
   3335,          16.,          11.,           1.
   3336,          16.,          11.,           2.
   3337,          16.,          11.,           3.
   3338,          16.,          11.,           4.
   3339,          16.,          11.,           5.
   3340,          16.,          11.,           6.
   3341,          16.,          11.,           7.
   3342,          16.,          11.,           8.
   3343,          16.,          11.,           9.
   3344,          16.,          11.,          10.
   3345,          16.,          10.,           0.
   3346,          16.,          10.,           1.
   3347,          16.,          10.,           2.
   3348,          16.,          10.,           3.
   3349,          16.,          10.,           4.
   3350,          16.,          10.,           5.
   3351,          16.,          10.,           6.
   3352,          16.,          10.,           7.
   3353,          16.,          10.,           8.
   3354,          16.,          10.,           9.
   3355,          16.,          10.,          10.
   3356,          16.,           9.,           0.
   3357,          16.,           9.,           1.
   3358,          16.,           9.,           2.
   3359,          16.,           9.,           3.
   3360,          16.,           9.,           4.
   3361,          16.,           9.,           5.
   3362,          16.,           9.,           6.
   3363,          16.,           9.,           7.
   3364,          16.,           9.,           8.
   3365,          16.,           9.,           9.
   3366,          16.,           9.,          10.
   3367,          16.,           8.,           0.
   3368,          16.,           8.,           1.
   3369,          16.,           8.,           2.
   3370,          16.,           8.,           3.
   3371,          16.,           8.,           4.
   3372,          16.,           8.,           5.
   3373,          16.,           8.,           6.
   3374,          16.,           8.,           7.
   3375,          16.,           8.,           8.
   3376,          16.,           8.,           9.
   3377,          16.,           8.,          10.
   3378,          16.,           7.,           0.
   3379,          16.,           7.,           1.
   3380,          16.,           7.,           2.
   3381,          16.,           7.,           3.
   3382,          16.,           7.,           4.
   3383,          16.,           7.,           5.
   3384,          16.,           7.,           6.
   3385,          16.,           7.,           7.
   3386,          16.,           7.,           8.
   3387,          16.,           7.,           9.
   3388,          16.,           7.,          10.
   3389,          16.,           6.,           0.
   3390,          16.,           6.,           1.
   3391,          16.,           6.,           2.
   3392,          16.,           6.,           3.
   3393,          16.,           6.,           4.
   3394,          16.,           6.,           5.
   3395,          16.,           6.,           6.
   3396,          16.,           6.,           7.
   3397,          16.,           6.,           8.
   3398,          16.,           6.,           9.
   3399,          16.,           6.,          10.
   3400,          16.,           5.,           0.
   3401,          16.,           5.,           1.
   3402,          16.,           5.,           2.
   3403,          16.,           5.,           3.
   3404,          16.,           5.,           4.
   3405,          16.,           5.,           5.
   3406,          16.,           5.,           6.
   3407,          16.,           5.,           7.
   3408,          16.,           5.,           8.
   3409,          16.,           5.,           9.
   3410,          16.,           5.,          10.
   3411,          16.,           4.,           0.
   3412,          16.,           4.,           1.
   3413,          16.,           4.,           2.
   3414,          16.,           4.,           3.
   3415,          16.,           4.,           4.
   3416,          16.,           4.,           5.
   3417,          16.,           4.,           6.
   3418,          16.,           4.,           7.
   3419,          16.,           4.,           8.
   3420,          16.,           4.,           9.
   3421,          16.,           4.,          10.
   3422,          16.,           3.,           0.
   3423,          16.,           3.,           1.
   3424,          16.,           3.,           2.
   3425,          16.,           3.,           3.
   3426,          16.,           3.,           4.
   3427,          16.,           3.,           5.
   3428,          16.,           3.,           6.
   3429,          16.,           3.,           7.
   3430,          16.,           3.,           8.
   3431,          16.,           3.,           9.
   3432,          16.,           3.,          10.
   3433,          16.,           2.,           0.
   3434,          16.,           2.,           1.
   3435,          16.,           2.,           2.
   3436,          16.,           2.,           3.
   3437,          16.,           2.,           4.
   3438,          16.,           2.,           5.
   3439,          16.,           2.,           6.
   3440,          16.,           2.,           7.
   3441,          16.,           2.,           8.
   3442,          16.,           2.,           9.
   3443,          16.,           2.,          10.
   3444,          16.,           1.,           0.
   3445,          16.,           1.,           1.
   3446,          16.,           1.,           2.
   3447,          16.,           1.,           3.
   3448,          16.,           1.,           4.
   3449,          16.,           1.,           5.
   3450,          16.,           1.,           6.
   3451,          16.,           1.,           7.
   3452,          16.,           1.,           8.
   3453,          16.,           1.,           9.
   3454,          16.,           1.,          10.
   3455,          16.,           0.,           0.
   3456,          16.,           0.,           1.
   3457,          16.,           0.,           2.
   3458,          16.,           0.,           3.
   3459,          16.,           0.,           4.
   3460,          16.,           0.,           5.
   3461,          16.,           0.,           6.
   3462,          16.,           0.,           7.
   3463,          16.,           0.,           8.
   3464,          16.,           0.,           9.
   3465,          16.,           0.,          10.
   3466,          15.,          20.,           0.
   3467,          15.,          20.,           1.
   3468,          15.,          20.,           2.
   3469,          15.,          20.,           3.
   3470,          15.,          20.,           4.
   3471,          15.,          20.,           5.
   3472,          15.,          20.,           6.
   3473,          15.,          20.,           7.
   3474,          15.,          20.,           8.
   3475,          15.,          20.,           9.
   3476,          15.,          20.,          10.
   3477,          15.,          19.,           0.
   3478,          15.,          19.,           1.
   3479,          15.,          19.,           2.
   3480,          15.,          19.,           3.
   3481,          15.,          19.,           4.
   3482,          15.,          19.,           5.
   3483,          15.,          19.,           6.
   3484,          15.,          19.,           7.
   3485,          15.,          19.,           8.
   3486,          15.,          19.,           9.
   3487,          15.,          19.,          10.
   3488,          15.,          18.,           0.
   3489,          15.,          18.,           1.
   3490,          15.,          18.,           2.
   3491,          15.,          18.,           3.
   3492,          15.,          18.,           4.
   3493,          15.,          18.,           5.
   3494,          15.,          18.,           6.
   3495,          15.,          18.,           7.
   3496,          15.,          18.,           8.
   3497,          15.,          18.,           9.
   3498,          15.,          18.,          10.
   3499,          15.,          17.,           0.
   3500,          15.,          17.,           1.
   3501,          15.,          17.,           2.
   3502,          15.,          17.,           3.
   3503,          15.,          17.,           4.
   3504,          15.,          17.,           5.
   3505,          15.,          17.,           6.
   3506,          15.,          17.,           7.
   3507,          15.,          17.,           8.
   3508,          15.,          17.,           9.
   3509,          15.,          17.,          10.
   3510,          15.,          16.,           0.
   3511,          15.,          16.,           1.
   3512,          15.,          16.,           2.
   3513,          15.,          16.,           3.
   3514,          15.,          16.,           4.
   3515,          15.,          16.,           5.
   3516,          15.,          16.,           6.
   3517,          15.,          16.,           7.
   3518,          15.,          16.,           8.
   3519,          15.,          16.,           9.
   3520,          15.,          16.,          10.
   3521,          15.,          15.,           0.
   3522,          15.,          15.,           1.
   3523,          15.,          15.,           2.
   3524,          15.,          15.,           3.
   3525,          15.,          15.,           4.
   3526,          15.,          15.,           5.
   3527,          15.,          15.,           6.
   3528,          15.,          15.,           7.
   3529,          15.,          15.,           8.
   3530,          15.,          15.,           9.
   3531,          15.,          15.,          10.
   3532,          15.,          14.,           0.
   3533,          15.,          14.,           1.
   3534,          15.,          14.,           2.
   3535,          15.,          14.,           3.
   3536,          15.,          14.,           4.
   3537,          15.,          14.,           5.
   3538,          15.,          14.,           6.
   3539,          15.,          14.,           7.
   3540,          15.,          14.,           8.
   3541,          15.,          14.,           9.
   3542,          15.,          14.,          10.
   3543,          15.,          13.,           0.
   3544,          15.,          13.,           1.
   3545,          15.,          13.,           2.
   3546,          15.,          13.,           3.
   3547,          15.,          13.,           4.
   3548,          15.,          13.,           5.
   3549,          15.,          13.,           6.
   3550,          15.,          13.,           7.
   3551,          15.,          13.,           8.
   3552,          15.,          13.,           9.
   3553,          15.,          13.,          10.
   3554,          15.,          12.,           0.
   3555,          15.,          12.,           1.
   3556,          15.,          12.,           2.
   3557,          15.,          12.,           3.
   3558,          15.,          12.,           4.
   3559,          15.,          12.,           5.
   3560,          15.,          12.,           6.
   3561,          15.,          12.,           7.
   3562,          15.,          12.,           8.
   3563,          15.,          12.,           9.
   3564,          15.,          12.,          10.
   3565,          15.,          11.,           0.
   3566,          15.,          11.,           1.
   3567,          15.,          11.,           2.
   3568,          15.,          11.,           3.
   3569,          15.,          11.,           4.
   3570,          15.,          11.,           5.
   3571,          15.,          11.,           6.
   3572,          15.,          11.,           7.
   3573,          15.,          11.,           8.
   3574,          15.,          11.,           9.
   3575,          15.,          11.,          10.
   3576,          15.,          10.,           0.
   3577,          15.,          10.,           1.
   3578,          15.,          10.,           2.
   3579,          15.,          10.,           3.
   3580,          15.,          10.,           4.
   3581,          15.,          10.,           5.
   3582,          15.,          10.,           6.
   3583,          15.,          10.,           7.
   3584,          15.,          10.,           8.
   3585,          15.,          10.,           9.
   3586,          15.,          10.,          10.
   3587,          15.,           9.,           0.
   3588,          15.,           9.,           1.
   3589,          15.,           9.,           2.
   3590,          15.,           9.,           3.
   3591,          15.,           9.,           4.
   3592,          15.,           9.,           5.
   3593,          15.,           9.,           6.
   3594,          15.,           9.,           7.
   3595,          15.,           9.,           8.
   3596,          15.,           9.,           9.
   3597,          15.,           9.,          10.
   3598,          15.,           8.,           0.
   3599,          15.,           8.,           1.
   3600,          15.,           8.,           2.
   3601,          15.,           8.,           3.
   3602,          15.,           8.,           4.
   3603,          15.,           8.,           5.
   3604,          15.,           8.,           6.
   3605,          15.,           8.,           7.
   3606,          15.,           8.,           8.
   3607,          15.,           8.,           9.
   3608,          15.,           8.,          10.
   3609,          15.,           7.,           0.
   3610,          15.,           7.,           1.
   3611,          15.,           7.,           2.
   3612,          15.,           7.,           3.
   3613,          15.,           7.,           4.
   3614,          15.,           7.,           5.
   3615,          15.,           7.,           6.
   3616,          15.,           7.,           7.
   3617,          15.,           7.,           8.
   3618,          15.,           7.,           9.
   3619,          15.,           7.,          10.
   3620,          15.,           6.,           0.
   3621,          15.,           6.,           1.
   3622,          15.,           6.,           2.
   3623,          15.,           6.,           3.
   3624,          15.,           6.,           4.
   3625,          15.,           6.,           5.
   3626,          15.,           6.,           6.
   3627,          15.,           6.,           7.
   3628,          15.,           6.,           8.
   3629,          15.,           6.,           9.
   3630,          15.,           6.,          10.
   3631,          15.,           5.,           0.
   3632,          15.,           5.,           1.
   3633,          15.,           5.,           2.
   3634,          15.,           5.,           3.
   3635,          15.,           5.,           4.
   3636,          15.,           5.,           5.
   3637,          15.,           5.,           6.
   3638,          15.,           5.,           7.
   3639,          15.,           5.,           8.
   3640,          15.,           5.,           9.
   3641,          15.,           5.,          10.
   3642,          15.,           4.,           0.
   3643,          15.,           4.,           1.
   3644,          15.,           4.,           2.
   3645,          15.,           4.,           3.
   3646,          15.,           4.,           4.
   3647,          15.,           4.,           5.
   3648,          15.,           4.,           6.
   3649,          15.,           4.,           7.
   3650,          15.,           4.,           8.
   3651,          15.,           4.,           9.
   3652,          15.,           4.,          10.
   3653,          15.,           3.,           0.
   3654,          15.,           3.,           1.
   3655,          15.,           3.,           2.
   3656,          15.,           3.,           3.
   3657,          15.,           3.,           4.
   3658,          15.,           3.,           5.
   3659,          15.,           3.,           6.
   3660,          15.,           3.,           7.
   3661,          15.,           3.,           8.
   3662,          15.,           3.,           9.
   3663,          15.,           3.,          10.
   3664,          15.,           2.,           0.
   3665,          15.,           2.,           1.
   3666,          15.,           2.,           2.
   3667,          15.,           2.,           3.
   3668,          15.,           2.,           4.
   3669,          15.,           2.,           5.
   3670,          15.,           2.,           6.
   3671,          15.,           2.,           7.
   3672,          15.,           2.,           8.
   3673,          15.,           2.,           9.
   3674,          15.,           2.,          10.
   3675,          15.,           1.,           0.
   3676,          15.,           1.,           1.
   3677,          15.,           1.,           2.
   3678,          15.,           1.,           3.
   3679,          15.,           1.,           4.
   3680,          15.,           1.,           5.
   3681,          15.,           1.,           6.
   3682,          15.,           1.,           7.
   3683,          15.,           1.,           8.
   3684,          15.,           1.,           9.
   3685,          15.,           1.,          10.
   3686,          15.,           0.,           0.
   3687,          15.,           0.,           1.
   3688,          15.,           0.,           2.
   3689,          15.,           0.,           3.
   3690,          15.,           0.,           4.
   3691,          15.,           0.,           5.
   3692,          15.,           0.,           6.
   3693,          15.,           0.,           7.
   3694,          15.,           0.,           8.
   3695,          15.,           0.,           9.
   3696,          15.,           0.,          10.
   3697,          14.,          20.,           0.
   3698,          14.,          20.,           1.
   3699,          14.,          20.,           2.
   3700,          14.,          20.,           3.
   3701,          14.,          20.,           4.
   3702,          14.,          20.,           5.
   3703,          14.,          20.,           6.
   3704,          14.,          20.,           7.
   3705,          14.,          20.,           8.
   3706,          14.,          20.,           9.
   3707,          14.,          20.,          10.
   3708,          14.,          19.,           0.
   3709,          14.,          19.,           1.
   3710,          14.,          19.,           2.
   3711,          14.,          19.,           3.
   3712,          14.,          19.,           4.
   3713,          14.,          19.,           5.
   3714,          14.,          19.,           6.
   3715,          14.,          19.,           7.
   3716,          14.,          19.,           8.
   3717,          14.,          19.,           9.
   3718,          14.,          19.,          10.
   3719,          14.,          18.,           0.
   3720,          14.,          18.,           1.
   3721,          14.,          18.,           2.
   3722,          14.,          18.,           3.
   3723,          14.,          18.,           4.
   3724,          14.,          18.,           5.
   3725,          14.,          18.,           6.
   3726,          14.,          18.,           7.
   3727,          14.,          18.,           8.
   3728,          14.,          18.,           9.
   3729,          14.,          18.,          10.
   3730,          14.,          17.,           0.
   3731,          14.,          17.,           1.
   3732,          14.,          17.,           2.
   3733,          14.,          17.,           3.
   3734,          14.,          17.,           4.
   3735,          14.,          17.,           5.
   3736,          14.,          17.,           6.
   3737,          14.,          17.,           7.
   3738,          14.,          17.,           8.
   3739,          14.,          17.,           9.
   3740,          14.,          17.,          10.
   3741,          14.,          16.,           0.
   3742,          14.,          16.,           1.
   3743,          14.,          16.,           2.
   3744,          14.,          16.,           3.
   3745,          14.,          16.,           4.
   3746,          14.,          16.,           5.
   3747,          14.,          16.,           6.
   3748,          14.,          16.,           7.
   3749,          14.,          16.,           8.
   3750,          14.,          16.,           9.
   3751,          14.,          16.,          10.
   3752,          14.,          15.,           0.
   3753,          14.,          15.,           1.
   3754,          14.,          15.,           2.
   3755,          14.,          15.,           3.
   3756,          14.,          15.,           4.
   3757,          14.,          15.,           5.
   3758,          14.,          15.,           6.
   3759,          14.,          15.,           7.
   3760,          14.,          15.,           8.
   3761,          14.,          15.,           9.
   3762,          14.,          15.,          10.
   3763,          14.,          14.,           0.
   3764,          14.,          14.,           1.
   3765,          14.,          14.,           2.
   3766,          14.,          14.,           3.
   3767,          14.,          14.,           4.
   3768,          14.,          14.,           5.
   3769,          14.,          14.,           6.
   3770,          14.,          14.,           7.
   3771,          14.,          14.,           8.
   3772,          14.,          14.,           9.
   3773,          14.,          14.,          10.
   3774,          14.,          13.,           0.
   3775,          14.,          13.,           1.
   3776,          14.,          13.,           2.
   3777,          14.,          13.,           3.
   3778,          14.,          13.,           4.
   3779,          14.,          13.,           5.
   3780,          14.,          13.,           6.
   3781,          14.,          13.,           7.
   3782,          14.,          13.,           8.
   3783,          14.,          13.,           9.
   3784,          14.,          13.,          10.
   3785,          14.,          12.,           0.
   3786,          14.,          12.,           1.
   3787,          14.,          12.,           2.
   3788,          14.,          12.,           3.
   3789,          14.,          12.,           4.
   3790,          14.,          12.,           5.
   3791,          14.,          12.,           6.
   3792,          14.,          12.,           7.
   3793,          14.,          12.,           8.
   3794,          14.,          12.,           9.
   3795,          14.,          12.,          10.
   3796,          14.,          11.,           0.
   3797,          14.,          11.,           1.
   3798,          14.,          11.,           2.
   3799,          14.,          11.,           3.
   3800,          14.,          11.,           4.
   3801,          14.,          11.,           5.
   3802,          14.,          11.,           6.
   3803,          14.,          11.,           7.
   3804,          14.,          11.,           8.
   3805,          14.,          11.,           9.
   3806,          14.,          11.,          10.
   3807,          14.,          10.,           0.
   3808,          14.,          10.,           1.
   3809,          14.,          10.,           2.
   3810,          14.,          10.,           3.
   3811,          14.,          10.,           4.
   3812,          14.,          10.,           5.
   3813,          14.,          10.,           6.
   3814,          14.,          10.,           7.
   3815,          14.,          10.,           8.
   3816,          14.,          10.,           9.
   3817,          14.,          10.,          10.
   3818,          14.,           9.,           0.
   3819,          14.,           9.,           1.
   3820,          14.,           9.,           2.
   3821,          14.,           9.,           3.
   3822,          14.,           9.,           4.
   3823,          14.,           9.,           5.
   3824,          14.,           9.,           6.
   3825,          14.,           9.,           7.
   3826,          14.,           9.,           8.
   3827,          14.,           9.,           9.
   3828,          14.,           9.,          10.
   3829,          14.,           8.,           0.
   3830,          14.,           8.,           1.
   3831,          14.,           8.,           2.
   3832,          14.,           8.,           3.
   3833,          14.,           8.,           4.
   3834,          14.,           8.,           5.
   3835,          14.,           8.,           6.
   3836,          14.,           8.,           7.
   3837,          14.,           8.,           8.
   3838,          14.,           8.,           9.
   3839,          14.,           8.,          10.
   3840,          14.,           7.,           0.
   3841,          14.,           7.,           1.
   3842,          14.,           7.,           2.
   3843,          14.,           7.,           3.
   3844,          14.,           7.,           4.
   3845,          14.,           7.,           5.
   3846,          14.,           7.,           6.
   3847,          14.,           7.,           7.
   3848,          14.,           7.,           8.
   3849,          14.,           7.,           9.
   3850,          14.,           7.,          10.
   3851,          14.,           6.,           0.
   3852,          14.,           6.,           1.
   3853,          14.,           6.,           2.
   3854,          14.,           6.,           3.
   3855,          14.,           6.,           4.
   3856,          14.,           6.,           5.
   3857,          14.,           6.,           6.
   3858,          14.,           6.,           7.
   3859,          14.,           6.,           8.
   3860,          14.,           6.,           9.
   3861,          14.,           6.,          10.
   3862,          14.,           5.,           0.
   3863,          14.,           5.,           1.
   3864,          14.,           5.,           2.
   3865,          14.,           5.,           3.
   3866,          14.,           5.,           4.
   3867,          14.,           5.,           5.
   3868,          14.,           5.,           6.
   3869,          14.,           5.,           7.
   3870,          14.,           5.,           8.
   3871,          14.,           5.,           9.
   3872,          14.,           5.,          10.
   3873,          14.,           4.,           0.
   3874,          14.,           4.,           1.
   3875,          14.,           4.,           2.
   3876,          14.,           4.,           3.
   3877,          14.,           4.,           4.
   3878,          14.,           4.,           5.
   3879,          14.,           4.,           6.
   3880,          14.,           4.,           7.
   3881,          14.,           4.,           8.
   3882,          14.,           4.,           9.
   3883,          14.,           4.,          10.
   3884,          14.,           3.,           0.
   3885,          14.,           3.,           1.
   3886,          14.,           3.,           2.
   3887,          14.,           3.,           3.
   3888,          14.,           3.,           4.
   3889,          14.,           3.,           5.
   3890,          14.,           3.,           6.
   3891,          14.,           3.,           7.
   3892,          14.,           3.,           8.
   3893,          14.,           3.,           9.
   3894,          14.,           3.,          10.
   3895,          14.,           2.,           0.
   3896,          14.,           2.,           1.
   3897,          14.,           2.,           2.
   3898,          14.,           2.,           3.
   3899,          14.,           2.,           4.
   3900,          14.,           2.,           5.
   3901,          14.,           2.,           6.
   3902,          14.,           2.,           7.
   3903,          14.,           2.,           8.
   3904,          14.,           2.,           9.
   3905,          14.,           2.,          10.
   3906,          14.,           1.,           0.
   3907,          14.,           1.,           1.
   3908,          14.,           1.,           2.
   3909,          14.,           1.,           3.
   3910,          14.,           1.,           4.
   3911,          14.,           1.,           5.
   3912,          14.,           1.,           6.
   3913,          14.,           1.,           7.
   3914,          14.,           1.,           8.
   3915,          14.,           1.,           9.
   3916,          14.,           1.,          10.
   3917,          14.,           0.,           0.
   3918,          14.,           0.,           1.
   3919,          14.,           0.,           2.
   3920,          14.,           0.,           3.
   3921,          14.,           0.,           4.
   3922,          14.,           0.,           5.
   3923,          14.,           0.,           6.
   3924,          14.,           0.,           7.
   3925,          14.,           0.,           8.
   3926,          14.,           0.,           9.
   3927,          14.,           0.,          10.
   3928,          13.,          20.,           0.
   3929,          13.,          20.,           1.
   3930,          13.,          20.,           2.
   3931,          13.,          20.,           3.
   3932,          13.,          20.,           4.
   3933,          13.,          20.,           5.
   3934,          13.,          20.,           6.
   3935,          13.,          20.,           7.
   3936,          13.,          20.,           8.
   3937,          13.,          20.,           9.
   3938,          13.,          20.,          10.
   3939,          13.,          19.,           0.
   3940,          13.,          19.,           1.
   3941,          13.,          19.,           2.
   3942,          13.,          19.,           3.
   3943,          13.,          19.,           4.
   3944,          13.,          19.,           5.
   3945,          13.,          19.,           6.
   3946,          13.,          19.,           7.
   3947,          13.,          19.,           8.
   3948,          13.,          19.,           9.
   3949,          13.,          19.,          10.
   3950,          13.,          18.,           0.
   3951,          13.,          18.,           1.
   3952,          13.,          18.,           2.
   3953,          13.,          18.,           3.
   3954,          13.,          18.,           4.
   3955,          13.,          18.,           5.
   3956,          13.,          18.,           6.
   3957,          13.,          18.,           7.
   3958,          13.,          18.,           8.
   3959,          13.,          18.,           9.
   3960,          13.,          18.,          10.
   3961,          13.,          17.,           0.
   3962,          13.,          17.,           1.
   3963,          13.,          17.,           2.
   3964,          13.,          17.,           3.
   3965,          13.,          17.,           4.
   3966,          13.,          17.,           5.
   3967,          13.,          17.,           6.
   3968,          13.,          17.,           7.
   3969,          13.,          17.,           8.
   3970,          13.,          17.,           9.
   3971,          13.,          17.,          10.
   3972,          13.,          16.,           0.
   3973,          13.,          16.,           1.
   3974,          13.,          16.,           2.
   3975,          13.,          16.,           3.
   3976,          13.,          16.,           4.
   3977,          13.,          16.,           5.
   3978,          13.,          16.,           6.
   3979,          13.,          16.,           7.
   3980,          13.,          16.,           8.
   3981,          13.,          16.,           9.
   3982,          13.,          16.,          10.
   3983,          13.,          15.,           0.
   3984,          13.,          15.,           1.
   3985,          13.,          15.,           2.
   3986,          13.,          15.,           3.
   3987,          13.,          15.,           4.
   3988,          13.,          15.,           5.
   3989,          13.,          15.,           6.
   3990,          13.,          15.,           7.
   3991,          13.,          15.,           8.
   3992,          13.,          15.,           9.
   3993,          13.,          15.,          10.
   3994,          13.,          14.,           0.
   3995,          13.,          14.,           1.
   3996,          13.,          14.,           2.
   3997,          13.,          14.,           3.
   3998,          13.,          14.,           4.
   3999,          13.,          14.,           5.
   4000,          13.,          14.,           6.
   4001,          13.,          14.,           7.
   4002,          13.,          14.,           8.
   4003,          13.,          14.,           9.
   4004,          13.,          14.,          10.
   4005,          13.,          13.,           0.
   4006,          13.,          13.,           1.
   4007,          13.,          13.,           2.
   4008,          13.,          13.,           3.
   4009,          13.,          13.,           4.
   4010,          13.,          13.,           5.
   4011,          13.,          13.,           6.
   4012,          13.,          13.,           7.
   4013,          13.,          13.,           8.
   4014,          13.,          13.,           9.
   4015,          13.,          13.,          10.
   4016,          13.,          12.,           0.
   4017,          13.,          12.,           1.
   4018,          13.,          12.,           2.
   4019,          13.,          12.,           3.
   4020,          13.,          12.,           4.
   4021,          13.,          12.,           5.
   4022,          13.,          12.,           6.
   4023,          13.,          12.,           7.
   4024,          13.,          12.,           8.
   4025,          13.,          12.,           9.
   4026,          13.,          12.,          10.
   4027,          13.,          11.,           0.
   4028,          13.,          11.,           1.
   4029,          13.,          11.,           2.
   4030,          13.,          11.,           3.
   4031,          13.,          11.,           4.
   4032,          13.,          11.,           5.
   4033,          13.,          11.,           6.
   4034,          13.,          11.,           7.
   4035,          13.,          11.,           8.
   4036,          13.,          11.,           9.
   4037,          13.,          11.,          10.
   4038,          13.,          10.,           0.
   4039,          13.,          10.,           1.
   4040,          13.,          10.,           2.
   4041,          13.,          10.,           3.
   4042,          13.,          10.,           4.
   4043,          13.,          10.,           5.
   4044,          13.,          10.,           6.
   4045,          13.,          10.,           7.
   4046,          13.,          10.,           8.
   4047,          13.,          10.,           9.
   4048,          13.,          10.,          10.
   4049,          13.,           9.,           0.
   4050,          13.,           9.,           1.
   4051,          13.,           9.,           2.
   4052,          13.,           9.,           3.
   4053,          13.,           9.,           4.
   4054,          13.,           9.,           5.
   4055,          13.,           9.,           6.
   4056,          13.,           9.,           7.
   4057,          13.,           9.,           8.
   4058,          13.,           9.,           9.
   4059,          13.,           9.,          10.
   4060,          13.,           8.,           0.
   4061,          13.,           8.,           1.
   4062,          13.,           8.,           2.
   4063,          13.,           8.,           3.
   4064,          13.,           8.,           4.
   4065,          13.,           8.,           5.
   4066,          13.,           8.,           6.
   4067,          13.,           8.,           7.
   4068,          13.,           8.,           8.
   4069,          13.,           8.,           9.
   4070,          13.,           8.,          10.
   4071,          13.,           7.,           0.
   4072,          13.,           7.,           1.
   4073,          13.,           7.,           2.
   4074,          13.,           7.,           3.
   4075,          13.,           7.,           4.
   4076,          13.,           7.,           5.
   4077,          13.,           7.,           6.
   4078,          13.,           7.,           7.
   4079,          13.,           7.,           8.
   4080,          13.,           7.,           9.
   4081,          13.,           7.,          10.
   4082,          13.,           6.,           0.
   4083,          13.,           6.,           1.
   4084,          13.,           6.,           2.
   4085,          13.,           6.,           3.
   4086,          13.,           6.,           4.
   4087,          13.,           6.,           5.
   4088,          13.,           6.,           6.
   4089,          13.,           6.,           7.
   4090,          13.,           6.,           8.
   4091,          13.,           6.,           9.
   4092,          13.,           6.,          10.
   4093,          13.,           5.,           0.
   4094,          13.,           5.,           1.
   4095,          13.,           5.,           2.
   4096,          13.,           5.,           3.
   4097,          13.,           5.,           4.
   4098,          13.,           5.,           5.
   4099,          13.,           5.,           6.
   4100,          13.,           5.,           7.
   4101,          13.,           5.,           8.
   4102,          13.,           5.,           9.
   4103,          13.,           5.,          10.
   4104,          13.,           4.,           0.
   4105,          13.,           4.,           1.
   4106,          13.,           4.,           2.
   4107,          13.,           4.,           3.
   4108,          13.,           4.,           4.
   4109,          13.,           4.,           5.
   4110,          13.,           4.,           6.
   4111,          13.,           4.,           7.
   4112,          13.,           4.,           8.
   4113,          13.,           4.,           9.
   4114,          13.,           4.,          10.
   4115,          13.,           3.,           0.
   4116,          13.,           3.,           1.
   4117,          13.,           3.,           2.
   4118,          13.,           3.,           3.
   4119,          13.,           3.,           4.
   4120,          13.,           3.,           5.
   4121,          13.,           3.,           6.
   4122,          13.,           3.,           7.
   4123,          13.,           3.,           8.
   4124,          13.,           3.,           9.
   4125,          13.,           3.,          10.
   4126,          13.,           2.,           0.
   4127,          13.,           2.,           1.
   4128,          13.,           2.,           2.
   4129,          13.,           2.,           3.
   4130,          13.,           2.,           4.
   4131,          13.,           2.,           5.
   4132,          13.,           2.,           6.
   4133,          13.,           2.,           7.
   4134,          13.,           2.,           8.
   4135,          13.,           2.,           9.
   4136,          13.,           2.,          10.
   4137,          13.,           1.,           0.
   4138,          13.,           1.,           1.
   4139,          13.,           1.,           2.
   4140,          13.,           1.,           3.
   4141,          13.,           1.,           4.
   4142,          13.,           1.,           5.
   4143,          13.,           1.,           6.
   4144,          13.,           1.,           7.
   4145,          13.,           1.,           8.
   4146,          13.,           1.,           9.
   4147,          13.,           1.,          10.
   4148,          13.,           0.,           0.
   4149,          13.,           0.,           1.
   4150,          13.,           0.,           2.
   4151,          13.,           0.,           3.
   4152,          13.,           0.,           4.
   4153,          13.,           0.,           5.
   4154,          13.,           0.,           6.
   4155,          13.,           0.,           7.
   4156,          13.,           0.,           8.
   4157,          13.,           0.,           9.
   4158,          13.,           0.,          10.
   4159,          12.,          20.,           0.
   4160,          12.,          20.,           1.
   4161,          12.,          20.,           2.
   4162,          12.,          20.,           3.
   4163,          12.,          20.,           4.
   4164,          12.,          20.,           5.
   4165,          12.,          20.,           6.
   4166,          12.,          20.,           7.
   4167,          12.,          20.,           8.
   4168,          12.,          20.,           9.
   4169,          12.,          20.,          10.
   4170,          12.,          19.,           0.
   4171,          12.,          19.,           1.
   4172,          12.,          19.,           2.
   4173,          12.,          19.,           3.
   4174,          12.,          19.,           4.
   4175,          12.,          19.,           5.
   4176,          12.,          19.,           6.
   4177,          12.,          19.,           7.
   4178,          12.,          19.,           8.
   4179,          12.,          19.,           9.
   4180,          12.,          19.,          10.
   4181,          12.,          18.,           0.
   4182,          12.,          18.,           1.
   4183,          12.,          18.,           2.
   4184,          12.,          18.,           3.
   4185,          12.,          18.,           4.
   4186,          12.,          18.,           5.
   4187,          12.,          18.,           6.
   4188,          12.,          18.,           7.
   4189,          12.,          18.,           8.
   4190,          12.,          18.,           9.
   4191,          12.,          18.,          10.
   4192,          12.,          17.,           0.
   4193,          12.,          17.,           1.
   4194,          12.,          17.,           2.
   4195,          12.,          17.,           3.
   4196,          12.,          17.,           4.
   4197,          12.,          17.,           5.
   4198,          12.,          17.,           6.
   4199,          12.,          17.,           7.
   4200,          12.,          17.,           8.
   4201,          12.,          17.,           9.
   4202,          12.,          17.,          10.
   4203,          12.,          16.,           0.
   4204,          12.,          16.,           1.
   4205,          12.,          16.,           2.
   4206,          12.,          16.,           3.
   4207,          12.,          16.,           4.
   4208,          12.,          16.,           5.
   4209,          12.,          16.,           6.
   4210,          12.,          16.,           7.
   4211,          12.,          16.,           8.
   4212,          12.,          16.,           9.
   4213,          12.,          16.,          10.
   4214,          12.,          15.,           0.
   4215,          12.,          15.,           1.
   4216,          12.,          15.,           2.
   4217,          12.,          15.,           3.
   4218,          12.,          15.,           4.
   4219,          12.,          15.,           5.
   4220,          12.,          15.,           6.
   4221,          12.,          15.,           7.
   4222,          12.,          15.,           8.
   4223,          12.,          15.,           9.
   4224,          12.,          15.,          10.
   4225,          12.,          14.,           0.
   4226,          12.,          14.,           1.
   4227,          12.,          14.,           2.
   4228,          12.,          14.,           3.
   4229,          12.,          14.,           4.
   4230,          12.,          14.,           5.
   4231,          12.,          14.,           6.
   4232,          12.,          14.,           7.
   4233,          12.,          14.,           8.
   4234,          12.,          14.,           9.
   4235,          12.,          14.,          10.
   4236,          12.,          13.,           0.
   4237,          12.,          13.,           1.
   4238,          12.,          13.,           2.
   4239,          12.,          13.,           3.
   4240,          12.,          13.,           4.
   4241,          12.,          13.,           5.
   4242,          12.,          13.,           6.
   4243,          12.,          13.,           7.
   4244,          12.,          13.,           8.
   4245,          12.,          13.,           9.
   4246,          12.,          13.,          10.
   4247,          12.,          12.,           0.
   4248,          12.,          12.,           1.
   4249,          12.,          12.,           2.
   4250,          12.,          12.,           3.
   4251,          12.,          12.,           4.
   4252,          12.,          12.,           5.
   4253,          12.,          12.,           6.
   4254,          12.,          12.,           7.
   4255,          12.,          12.,           8.
   4256,          12.,          12.,           9.
   4257,          12.,          12.,          10.
   4258,          12.,          11.,           0.
   4259,          12.,          11.,           1.
   4260,          12.,          11.,           2.
   4261,          12.,          11.,           3.
   4262,          12.,          11.,           4.
   4263,          12.,          11.,           5.
   4264,          12.,          11.,           6.
   4265,          12.,          11.,           7.
   4266,          12.,          11.,           8.
   4267,          12.,          11.,           9.
   4268,          12.,          11.,          10.
   4269,          12.,          10.,           0.
   4270,          12.,          10.,           1.
   4271,          12.,          10.,           2.
   4272,          12.,          10.,           3.
   4273,          12.,          10.,           4.
   4274,          12.,          10.,           5.
   4275,          12.,          10.,           6.
   4276,          12.,          10.,           7.
   4277,          12.,          10.,           8.
   4278,          12.,          10.,           9.
   4279,          12.,          10.,          10.
   4280,          12.,           9.,           0.
   4281,          12.,           9.,           1.
   4282,          12.,           9.,           2.
   4283,          12.,           9.,           3.
   4284,          12.,           9.,           4.
   4285,          12.,           9.,           5.
   4286,          12.,           9.,           6.
   4287,          12.,           9.,           7.
   4288,          12.,           9.,           8.
   4289,          12.,           9.,           9.
   4290,          12.,           9.,          10.
   4291,          12.,           8.,           0.
   4292,          12.,           8.,           1.
   4293,          12.,           8.,           2.
   4294,          12.,           8.,           3.
   4295,          12.,           8.,           4.
   4296,          12.,           8.,           5.
   4297,          12.,           8.,           6.
   4298,          12.,           8.,           7.
   4299,          12.,           8.,           8.
   4300,          12.,           8.,           9.
   4301,          12.,           8.,          10.
   4302,          12.,           7.,           0.
   4303,          12.,           7.,           1.
   4304,          12.,           7.,           2.
   4305,          12.,           7.,           3.
   4306,          12.,           7.,           4.
   4307,          12.,           7.,           5.
   4308,          12.,           7.,           6.
   4309,          12.,           7.,           7.
   4310,          12.,           7.,           8.
   4311,          12.,           7.,           9.
   4312,          12.,           7.,          10.
   4313,          12.,           6.,           0.
   4314,          12.,           6.,           1.
   4315,          12.,           6.,           2.
   4316,          12.,           6.,           3.
   4317,          12.,           6.,           4.
   4318,          12.,           6.,           5.
   4319,          12.,           6.,           6.
   4320,          12.,           6.,           7.
   4321,          12.,           6.,           8.
   4322,          12.,           6.,           9.
   4323,          12.,           6.,          10.
   4324,          12.,           5.,           0.
   4325,          12.,           5.,           1.
   4326,          12.,           5.,           2.
   4327,          12.,           5.,           3.
   4328,          12.,           5.,           4.
   4329,          12.,           5.,           5.
   4330,          12.,           5.,           6.
   4331,          12.,           5.,           7.
   4332,          12.,           5.,           8.
   4333,          12.,           5.,           9.
   4334,          12.,           5.,          10.
   4335,          12.,           4.,           0.
   4336,          12.,           4.,           1.
   4337,          12.,           4.,           2.
   4338,          12.,           4.,           3.
   4339,          12.,           4.,           4.
   4340,          12.,           4.,           5.
   4341,          12.,           4.,           6.
   4342,          12.,           4.,           7.
   4343,          12.,           4.,           8.
   4344,          12.,           4.,           9.
   4345,          12.,           4.,          10.
   4346,          12.,           3.,           0.
   4347,          12.,           3.,           1.
   4348,          12.,           3.,           2.
   4349,          12.,           3.,           3.
   4350,          12.,           3.,           4.
   4351,          12.,           3.,           5.
   4352,          12.,           3.,           6.
   4353,          12.,           3.,           7.
   4354,          12.,           3.,           8.
   4355,          12.,           3.,           9.
   4356,          12.,           3.,          10.
   4357,          12.,           2.,           0.
   4358,          12.,           2.,           1.
   4359,          12.,           2.,           2.
   4360,          12.,           2.,           3.
   4361,          12.,           2.,           4.
   4362,          12.,           2.,           5.
   4363,          12.,           2.,           6.
   4364,          12.,           2.,           7.
   4365,          12.,           2.,           8.
   4366,          12.,           2.,           9.
   4367,          12.,           2.,          10.
   4368,          12.,           1.,           0.
   4369,          12.,           1.,           1.
   4370,          12.,           1.,           2.
   4371,          12.,           1.,           3.
   4372,          12.,           1.,           4.
   4373,          12.,           1.,           5.
   4374,          12.,           1.,           6.
   4375,          12.,           1.,           7.
   4376,          12.,           1.,           8.
   4377,          12.,           1.,           9.
   4378,          12.,           1.,          10.
   4379,          12.,           0.,           0.
   4380,          12.,           0.,           1.
   4381,          12.,           0.,           2.
   4382,          12.,           0.,           3.
   4383,          12.,           0.,           4.
   4384,          12.,           0.,           5.
   4385,          12.,           0.,           6.
   4386,          12.,           0.,           7.
   4387,          12.,           0.,           8.
   4388,          12.,           0.,           9.
   4389,          12.,           0.,          10.
   4390,          11.,          20.,           0.
   4391,          11.,          20.,           1.
   4392,          11.,          20.,           2.
   4393,          11.,          20.,           3.
   4394,          11.,          20.,           4.
   4395,          11.,          20.,           5.
   4396,          11.,          20.,           6.
   4397,          11.,          20.,           7.
   4398,          11.,          20.,           8.
   4399,          11.,          20.,           9.
   4400,          11.,          20.,          10.
   4401,          11.,          19.,           0.
   4402,          11.,          19.,           1.
   4403,          11.,          19.,           2.
   4404,          11.,          19.,           3.
   4405,          11.,          19.,           4.
   4406,          11.,          19.,           5.
   4407,          11.,          19.,           6.
   4408,          11.,          19.,           7.
   4409,          11.,          19.,           8.
   4410,          11.,          19.,           9.
   4411,          11.,          19.,          10.
   4412,          11.,          18.,           0.
   4413,          11.,          18.,           1.
   4414,          11.,          18.,           2.
   4415,          11.,          18.,           3.
   4416,          11.,          18.,           4.
   4417,          11.,          18.,           5.
   4418,          11.,          18.,           6.
   4419,          11.,          18.,           7.
   4420,          11.,          18.,           8.
   4421,          11.,          18.,           9.
   4422,          11.,          18.,          10.
   4423,          11.,          17.,           0.
   4424,          11.,          17.,           1.
   4425,          11.,          17.,           2.
   4426,          11.,          17.,           3.
   4427,          11.,          17.,           4.
   4428,          11.,          17.,           5.
   4429,          11.,          17.,           6.
   4430,          11.,          17.,           7.
   4431,          11.,          17.,           8.
   4432,          11.,          17.,           9.
   4433,          11.,          17.,          10.
   4434,          11.,          16.,           0.
   4435,          11.,          16.,           1.
   4436,          11.,          16.,           2.
   4437,          11.,          16.,           3.
   4438,          11.,          16.,           4.
   4439,          11.,          16.,           5.
   4440,          11.,          16.,           6.
   4441,          11.,          16.,           7.
   4442,          11.,          16.,           8.
   4443,          11.,          16.,           9.
   4444,          11.,          16.,          10.
   4445,          11.,          15.,           0.
   4446,          11.,          15.,           1.
   4447,          11.,          15.,           2.
   4448,          11.,          15.,           3.
   4449,          11.,          15.,           4.
   4450,          11.,          15.,           5.
   4451,          11.,          15.,           6.
   4452,          11.,          15.,           7.
   4453,          11.,          15.,           8.
   4454,          11.,          15.,           9.
   4455,          11.,          15.,          10.
   4456,          11.,          14.,           0.
   4457,          11.,          14.,           1.
   4458,          11.,          14.,           2.
   4459,          11.,          14.,           3.
   4460,          11.,          14.,           4.
   4461,          11.,          14.,           5.
   4462,          11.,          14.,           6.
   4463,          11.,          14.,           7.
   4464,          11.,          14.,           8.
   4465,          11.,          14.,           9.
   4466,          11.,          14.,          10.
   4467,          11.,          13.,           0.
   4468,          11.,          13.,           1.
   4469,          11.,          13.,           2.
   4470,          11.,          13.,           3.
   4471,          11.,          13.,           4.
   4472,          11.,          13.,           5.
   4473,          11.,          13.,           6.
   4474,          11.,          13.,           7.
   4475,          11.,          13.,           8.
   4476,          11.,          13.,           9.
   4477,          11.,          13.,          10.
   4478,          11.,          12.,           0.
   4479,          11.,          12.,           1.
   4480,          11.,          12.,           2.
   4481,          11.,          12.,           3.
   4482,          11.,          12.,           4.
   4483,          11.,          12.,           5.
   4484,          11.,          12.,           6.
   4485,          11.,          12.,           7.
   4486,          11.,          12.,           8.
   4487,          11.,          12.,           9.
   4488,          11.,          12.,          10.
   4489,          11.,          11.,           0.
   4490,          11.,          11.,           1.
   4491,          11.,          11.,           2.
   4492,          11.,          11.,           3.
   4493,          11.,          11.,           4.
   4494,          11.,          11.,           5.
   4495,          11.,          11.,           6.
   4496,          11.,          11.,           7.
   4497,          11.,          11.,           8.
   4498,          11.,          11.,           9.
   4499,          11.,          11.,          10.
   4500,          11.,          10.,           0.
   4501,          11.,          10.,           1.
   4502,          11.,          10.,           2.
   4503,          11.,          10.,           3.
   4504,          11.,          10.,           4.
   4505,          11.,          10.,           5.
   4506,          11.,          10.,           6.
   4507,          11.,          10.,           7.
   4508,          11.,          10.,           8.
   4509,          11.,          10.,           9.
   4510,          11.,          10.,          10.
   4511,          11.,           9.,           0.
   4512,          11.,           9.,           1.
   4513,          11.,           9.,           2.
   4514,          11.,           9.,           3.
   4515,          11.,           9.,           4.
   4516,          11.,           9.,           5.
   4517,          11.,           9.,           6.
   4518,          11.,           9.,           7.
   4519,          11.,           9.,           8.
   4520,          11.,           9.,           9.
   4521,          11.,           9.,          10.
   4522,          11.,           8.,           0.
   4523,          11.,           8.,           1.
   4524,          11.,           8.,           2.
   4525,          11.,           8.,           3.
   4526,          11.,           8.,           4.
   4527,          11.,           8.,           5.
   4528,          11.,           8.,           6.
   4529,          11.,           8.,           7.
   4530,          11.,           8.,           8.
   4531,          11.,           8.,           9.
   4532,          11.,           8.,          10.
   4533,          11.,           7.,           0.
   4534,          11.,           7.,           1.
   4535,          11.,           7.,           2.
   4536,          11.,           7.,           3.
   4537,          11.,           7.,           4.
   4538,          11.,           7.,           5.
   4539,          11.,           7.,           6.
   4540,          11.,           7.,           7.
   4541,          11.,           7.,           8.
   4542,          11.,           7.,           9.
   4543,          11.,           7.,          10.
   4544,          11.,           6.,           0.
   4545,          11.,           6.,           1.
   4546,          11.,           6.,           2.
   4547,          11.,           6.,           3.
   4548,          11.,           6.,           4.
   4549,          11.,           6.,           5.
   4550,          11.,           6.,           6.
   4551,          11.,           6.,           7.
   4552,          11.,           6.,           8.
   4553,          11.,           6.,           9.
   4554,          11.,           6.,          10.
   4555,          11.,           5.,           0.
   4556,          11.,           5.,           1.
   4557,          11.,           5.,           2.
   4558,          11.,           5.,           3.
   4559,          11.,           5.,           4.
   4560,          11.,           5.,           5.
   4561,          11.,           5.,           6.
   4562,          11.,           5.,           7.
   4563,          11.,           5.,           8.
   4564,          11.,           5.,           9.
   4565,          11.,           5.,          10.
   4566,          11.,           4.,           0.
   4567,          11.,           4.,           1.
   4568,          11.,           4.,           2.
   4569,          11.,           4.,           3.
   4570,          11.,           4.,           4.
   4571,          11.,           4.,           5.
   4572,          11.,           4.,           6.
   4573,          11.,           4.,           7.
   4574,          11.,           4.,           8.
   4575,          11.,           4.,           9.
   4576,          11.,           4.,          10.
   4577,          11.,           3.,           0.
   4578,          11.,           3.,           1.
   4579,          11.,           3.,           2.
   4580,          11.,           3.,           3.
   4581,          11.,           3.,           4.
   4582,          11.,           3.,           5.
   4583,          11.,           3.,           6.
   4584,          11.,           3.,           7.
   4585,          11.,           3.,           8.
   4586,          11.,           3.,           9.
   4587,          11.,           3.,          10.
   4588,          11.,           2.,           0.
   4589,          11.,           2.,           1.
   4590,          11.,           2.,           2.
   4591,          11.,           2.,           3.
   4592,          11.,           2.,           4.
   4593,          11.,           2.,           5.
   4594,          11.,           2.,           6.
   4595,          11.,           2.,           7.
   4596,          11.,           2.,           8.
   4597,          11.,           2.,           9.
   4598,          11.,           2.,          10.
   4599,          11.,           1.,           0.
   4600,          11.,           1.,           1.
   4601,          11.,           1.,           2.
   4602,          11.,           1.,           3.
   4603,          11.,           1.,           4.
   4604,          11.,           1.,           5.
   4605,          11.,           1.,           6.
   4606,          11.,           1.,           7.
   4607,          11.,           1.,           8.
   4608,          11.,           1.,           9.
   4609,          11.,           1.,          10.
   4610,          11.,           0.,           0.
   4611,          11.,           0.,           1.
   4612,          11.,           0.,           2.
   4613,          11.,           0.,           3.
   4614,          11.,           0.,           4.
   4615,          11.,           0.,           5.
   4616,          11.,           0.,           6.
   4617,          11.,           0.,           7.
   4618,          11.,           0.,           8.
   4619,          11.,           0.,           9.
   4620,          11.,           0.,          10.
   4621,          10.,          20.,           0.
   4622,          10.,          20.,           1.
   4623,          10.,          20.,           2.
   4624,          10.,          20.,           3.
   4625,          10.,          20.,           4.
   4626,          10.,          20.,           5.
   4627,          10.,          20.,           6.
   4628,          10.,          20.,           7.
   4629,          10.,          20.,           8.
   4630,          10.,          20.,           9.
   4631,          10.,          20.,          10.
   4632,          10.,          19.,           0.
   4633,          10.,          19.,           1.
   4634,          10.,          19.,           2.
   4635,          10.,          19.,           3.
   4636,          10.,          19.,           4.
   4637,          10.,          19.,           5.
   4638,          10.,          19.,           6.
   4639,          10.,          19.,           7.
   4640,          10.,          19.,           8.
   4641,          10.,          19.,           9.
   4642,          10.,          19.,          10.
   4643,          10.,          18.,           0.
   4644,          10.,          18.,           1.
   4645,          10.,          18.,           2.
   4646,          10.,          18.,           3.
   4647,          10.,          18.,           4.
   4648,          10.,          18.,           5.
   4649,          10.,          18.,           6.
   4650,          10.,          18.,           7.
   4651,          10.,          18.,           8.
   4652,          10.,          18.,           9.
   4653,          10.,          18.,          10.
   4654,          10.,          17.,           0.
   4655,          10.,          17.,           1.
   4656,          10.,          17.,           2.
   4657,          10.,          17.,           3.
   4658,          10.,          17.,           4.
   4659,          10.,          17.,           5.
   4660,          10.,          17.,           6.
   4661,          10.,          17.,           7.
   4662,          10.,          17.,           8.
   4663,          10.,          17.,           9.
   4664,          10.,          17.,          10.
   4665,          10.,          16.,           0.
   4666,          10.,          16.,           1.
   4667,          10.,          16.,           2.
   4668,          10.,          16.,           3.
   4669,          10.,          16.,           4.
   4670,          10.,          16.,           5.
   4671,          10.,          16.,           6.
   4672,          10.,          16.,           7.
   4673,          10.,          16.,           8.
   4674,          10.,          16.,           9.
   4675,          10.,          16.,          10.
   4676,          10.,          15.,           0.
   4677,          10.,          15.,           1.
   4678,          10.,          15.,           2.
   4679,          10.,          15.,           3.
   4680,          10.,          15.,           4.
   4681,          10.,          15.,           5.
   4682,          10.,          15.,           6.
   4683,          10.,          15.,           7.
   4684,          10.,          15.,           8.
   4685,          10.,          15.,           9.
   4686,          10.,          15.,          10.
   4687,          10.,          14.,           0.
   4688,          10.,          14.,           1.
   4689,          10.,          14.,           2.
   4690,          10.,          14.,           3.
   4691,          10.,          14.,           4.
   4692,          10.,          14.,           5.
   4693,          10.,          14.,           6.
   4694,          10.,          14.,           7.
   4695,          10.,          14.,           8.
   4696,          10.,          14.,           9.
   4697,          10.,          14.,          10.
   4698,          10.,          13.,           0.
   4699,          10.,          13.,           1.
   4700,          10.,          13.,           2.
   4701,          10.,          13.,           3.
   4702,          10.,          13.,           4.
   4703,          10.,          13.,           5.
   4704,          10.,          13.,           6.
   4705,          10.,          13.,           7.
   4706,          10.,          13.,           8.
   4707,          10.,          13.,           9.
   4708,          10.,          13.,          10.
   4709,          10.,          12.,           0.
   4710,          10.,          12.,           1.
   4711,          10.,          12.,           2.
   4712,          10.,          12.,           3.
   4713,          10.,          12.,           4.
   4714,          10.,          12.,           5.
   4715,          10.,          12.,           6.
   4716,          10.,          12.,           7.
   4717,          10.,          12.,           8.
   4718,          10.,          12.,           9.
   4719,          10.,          12.,          10.
   4720,          10.,          11.,           0.
   4721,          10.,          11.,           1.
   4722,          10.,          11.,           2.
   4723,          10.,          11.,           3.
   4724,          10.,          11.,           4.
   4725,          10.,          11.,           5.
   4726,          10.,          11.,           6.
   4727,          10.,          11.,           7.
   4728,          10.,          11.,           8.
   4729,          10.,          11.,           9.
   4730,          10.,          11.,          10.
   4731,          10.,          10.,           0.
   4732,          10.,          10.,           1.
   4733,          10.,          10.,           2.
   4734,          10.,          10.,           3.
   4735,          10.,          10.,           4.
   4736,          10.,          10.,           5.
   4737,          10.,          10.,           6.
   4738,          10.,          10.,           7.
   4739,          10.,          10.,           8.
   4740,          10.,          10.,           9.
   4741,          10.,          10.,          10.
   4742,          10.,           9.,           0.
   4743,          10.,           9.,           1.
   4744,          10.,           9.,           2.
   4745,          10.,           9.,           3.
   4746,          10.,           9.,           4.
   4747,          10.,           9.,           5.
   4748,          10.,           9.,           6.
   4749,          10.,           9.,           7.
   4750,          10.,           9.,           8.
   4751,          10.,           9.,           9.
   4752,          10.,           9.,          10.
   4753,          10.,           8.,           0.
   4754,          10.,           8.,           1.
   4755,          10.,           8.,           2.
   4756,          10.,           8.,           3.
   4757,          10.,           8.,           4.
   4758,          10.,           8.,           5.
   4759,          10.,           8.,           6.
   4760,          10.,           8.,           7.
   4761,          10.,           8.,           8.
   4762,          10.,           8.,           9.
   4763,          10.,           8.,          10.
   4764,          10.,           7.,           0.
   4765,          10.,           7.,           1.
   4766,          10.,           7.,           2.
   4767,          10.,           7.,           3.
   4768,          10.,           7.,           4.
   4769,          10.,           7.,           5.
   4770,          10.,           7.,           6.
   4771,          10.,           7.,           7.
   4772,          10.,           7.,           8.
   4773,          10.,           7.,           9.
   4774,          10.,           7.,          10.
   4775,          10.,           6.,           0.
   4776,          10.,           6.,           1.
   4777,          10.,           6.,           2.
   4778,          10.,           6.,           3.
   4779,          10.,           6.,           4.
   4780,          10.,           6.,           5.
   4781,          10.,           6.,           6.
   4782,          10.,           6.,           7.
   4783,          10.,           6.,           8.
   4784,          10.,           6.,           9.
   4785,          10.,           6.,          10.
   4786,          10.,           5.,           0.
   4787,          10.,           5.,           1.
   4788,          10.,           5.,           2.
   4789,          10.,           5.,           3.
   4790,          10.,           5.,           4.
   4791,          10.,           5.,           5.
   4792,          10.,           5.,           6.
   4793,          10.,           5.,           7.
   4794,          10.,           5.,           8.
   4795,          10.,           5.,           9.
   4796,          10.,           5.,          10.
   4797,          10.,           4.,           0.
   4798,          10.,           4.,           1.
   4799,          10.,           4.,           2.
   4800,          10.,           4.,           3.
   4801,          10.,           4.,           4.
   4802,          10.,           4.,           5.
   4803,          10.,           4.,           6.
   4804,          10.,           4.,           7.
   4805,          10.,           4.,           8.
   4806,          10.,           4.,           9.
   4807,          10.,           4.,          10.
   4808,          10.,           3.,           0.
   4809,          10.,           3.,           1.
   4810,          10.,           3.,           2.
   4811,          10.,           3.,           3.
   4812,          10.,           3.,           4.
   4813,          10.,           3.,           5.
   4814,          10.,           3.,           6.
   4815,          10.,           3.,           7.
   4816,          10.,           3.,           8.
   4817,          10.,           3.,           9.
   4818,          10.,           3.,          10.
   4819,          10.,           2.,           0.
   4820,          10.,           2.,           1.
   4821,          10.,           2.,           2.
   4822,          10.,           2.,           3.
   4823,          10.,           2.,           4.
   4824,          10.,           2.,           5.
   4825,          10.,           2.,           6.
   4826,          10.,           2.,           7.
   4827,          10.,           2.,           8.
   4828,          10.,           2.,           9.
   4829,          10.,           2.,          10.
   4830,          10.,           1.,           0.
   4831,          10.,           1.,           1.
   4832,          10.,           1.,           2.
   4833,          10.,           1.,           3.
   4834,          10.,           1.,           4.
   4835,          10.,           1.,           5.
   4836,          10.,           1.,           6.
   4837,          10.,           1.,           7.
   4838,          10.,           1.,           8.
   4839,          10.,           1.,           9.
   4840,          10.,           1.,          10.
   4841,          10.,           0.,           0.
   4842,          10.,           0.,           1.
   4843,          10.,           0.,           2.
   4844,          10.,           0.,           3.
   4845,          10.,           0.,           4.
   4846,          10.,           0.,           5.
   4847,          10.,           0.,           6.
   4848,          10.,           0.,           7.
   4849,          10.,           0.,           8.
   4850,          10.,           0.,           9.
   4851,          10.,           0.,          10.
   4852,           9.,          20.,           0.
   4853,           9.,          20.,           1.
   4854,           9.,          20.,           2.
   4855,           9.,          20.,           3.
   4856,           9.,          20.,           4.
   4857,           9.,          20.,           5.
   4858,           9.,          20.,           6.
   4859,           9.,          20.,           7.
   4860,           9.,          20.,           8.
   4861,           9.,          20.,           9.
   4862,           9.,          20.,          10.
   4863,           9.,          19.,           0.
   4864,           9.,          19.,           1.
   4865,           9.,          19.,           2.
   4866,           9.,          19.,           3.
   4867,           9.,          19.,           4.
   4868,           9.,          19.,           5.
   4869,           9.,          19.,           6.
   4870,           9.,          19.,           7.
   4871,           9.,          19.,           8.
   4872,           9.,          19.,           9.
   4873,           9.,          19.,          10.
   4874,           9.,          18.,           0.
   4875,           9.,          18.,           1.
   4876,           9.,          18.,           2.
   4877,           9.,          18.,           3.
   4878,           9.,          18.,           4.
   4879,           9.,          18.,           5.
   4880,           9.,          18.,           6.
   4881,           9.,          18.,           7.
   4882,           9.,          18.,           8.
   4883,           9.,          18.,           9.
   4884,           9.,          18.,          10.
   4885,           9.,          17.,           0.
   4886,           9.,          17.,           1.
   4887,           9.,          17.,           2.
   4888,           9.,          17.,           3.
   4889,           9.,          17.,           4.
   4890,           9.,          17.,           5.
   4891,           9.,          17.,           6.
   4892,           9.,          17.,           7.
   4893,           9.,          17.,           8.
   4894,           9.,          17.,           9.
   4895,           9.,          17.,          10.
   4896,           9.,          16.,           0.
   4897,           9.,          16.,           1.
   4898,           9.,          16.,           2.
   4899,           9.,          16.,           3.
   4900,           9.,          16.,           4.
   4901,           9.,          16.,           5.
   4902,           9.,          16.,           6.
   4903,           9.,          16.,           7.
   4904,           9.,          16.,           8.
   4905,           9.,          16.,           9.
   4906,           9.,          16.,          10.
   4907,           9.,          15.,           0.
   4908,           9.,          15.,           1.
   4909,           9.,          15.,           2.
   4910,           9.,          15.,           3.
   4911,           9.,          15.,           4.
   4912,           9.,          15.,           5.
   4913,           9.,          15.,           6.
   4914,           9.,          15.,           7.
   4915,           9.,          15.,           8.
   4916,           9.,          15.,           9.
   4917,           9.,          15.,          10.
   4918,           9.,          14.,           0.
   4919,           9.,          14.,           1.
   4920,           9.,          14.,           2.
   4921,           9.,          14.,           3.
   4922,           9.,          14.,           4.
   4923,           9.,          14.,           5.
   4924,           9.,          14.,           6.
   4925,           9.,          14.,           7.
   4926,           9.,          14.,           8.
   4927,           9.,          14.,           9.
   4928,           9.,          14.,          10.
   4929,           9.,          13.,           0.
   4930,           9.,          13.,           1.
   4931,           9.,          13.,           2.
   4932,           9.,          13.,           3.
   4933,           9.,          13.,           4.
   4934,           9.,          13.,           5.
   4935,           9.,          13.,           6.
   4936,           9.,          13.,           7.
   4937,           9.,          13.,           8.
   4938,           9.,          13.,           9.
   4939,           9.,          13.,          10.
   4940,           9.,          12.,           0.
   4941,           9.,          12.,           1.
   4942,           9.,          12.,           2.
   4943,           9.,          12.,           3.
   4944,           9.,          12.,           4.
   4945,           9.,          12.,           5.
   4946,           9.,          12.,           6.
   4947,           9.,          12.,           7.
   4948,           9.,          12.,           8.
   4949,           9.,          12.,           9.
   4950,           9.,          12.,          10.
   4951,           9.,          11.,           0.
   4952,           9.,          11.,           1.
   4953,           9.,          11.,           2.
   4954,           9.,          11.,           3.
   4955,           9.,          11.,           4.
   4956,           9.,          11.,           5.
   4957,           9.,          11.,           6.
   4958,           9.,          11.,           7.
   4959,           9.,          11.,           8.
   4960,           9.,          11.,           9.
   4961,           9.,          11.,          10.
   4962,           9.,          10.,           0.
   4963,           9.,          10.,           1.
   4964,           9.,          10.,           2.
   4965,           9.,          10.,           3.
   4966,           9.,          10.,           4.
   4967,           9.,          10.,           5.
   4968,           9.,          10.,           6.
   4969,           9.,          10.,           7.
   4970,           9.,          10.,           8.
   4971,           9.,          10.,           9.
   4972,           9.,          10.,          10.
   4973,           9.,           9.,           0.
   4974,           9.,           9.,           1.
   4975,           9.,           9.,           2.
   4976,           9.,           9.,           3.
   4977,           9.,           9.,           4.
   4978,           9.,           9.,           5.
   4979,           9.,           9.,           6.
   4980,           9.,           9.,           7.
   4981,           9.,           9.,           8.
   4982,           9.,           9.,           9.
   4983,           9.,           9.,          10.
   4984,           9.,           8.,           0.
   4985,           9.,           8.,           1.
   4986,           9.,           8.,           2.
   4987,           9.,           8.,           3.
   4988,           9.,           8.,           4.
   4989,           9.,           8.,           5.
   4990,           9.,           8.,           6.
   4991,           9.,           8.,           7.
   4992,           9.,           8.,           8.
   4993,           9.,           8.,           9.
   4994,           9.,           8.,          10.
   4995,           9.,           7.,           0.
   4996,           9.,           7.,           1.
   4997,           9.,           7.,           2.
   4998,           9.,           7.,           3.
   4999,           9.,           7.,           4.
   5000,           9.,           7.,           5.
   5001,           9.,           7.,           6.
   5002,           9.,           7.,           7.
   5003,           9.,           7.,           8.
   5004,           9.,           7.,           9.
   5005,           9.,           7.,          10.
   5006,           9.,           6.,           0.
   5007,           9.,           6.,           1.
   5008,           9.,           6.,           2.
   5009,           9.,           6.,           3.
   5010,           9.,           6.,           4.
   5011,           9.,           6.,           5.
   5012,           9.,           6.,           6.
   5013,           9.,           6.,           7.
   5014,           9.,           6.,           8.
   5015,           9.,           6.,           9.
   5016,           9.,           6.,          10.
   5017,           9.,           5.,           0.
   5018,           9.,           5.,           1.
   5019,           9.,           5.,           2.
   5020,           9.,           5.,           3.
   5021,           9.,           5.,           4.
   5022,           9.,           5.,           5.
   5023,           9.,           5.,           6.
   5024,           9.,           5.,           7.
   5025,           9.,           5.,           8.
   5026,           9.,           5.,           9.
   5027,           9.,           5.,          10.
   5028,           9.,           4.,           0.
   5029,           9.,           4.,           1.
   5030,           9.,           4.,           2.
   5031,           9.,           4.,           3.
   5032,           9.,           4.,           4.
   5033,           9.,           4.,           5.
   5034,           9.,           4.,           6.
   5035,           9.,           4.,           7.
   5036,           9.,           4.,           8.
   5037,           9.,           4.,           9.
   5038,           9.,           4.,          10.
   5039,           9.,           3.,           0.
   5040,           9.,           3.,           1.
   5041,           9.,           3.,           2.
   5042,           9.,           3.,           3.
   5043,           9.,           3.,           4.
   5044,           9.,           3.,           5.
   5045,           9.,           3.,           6.
   5046,           9.,           3.,           7.
   5047,           9.,           3.,           8.
   5048,           9.,           3.,           9.
   5049,           9.,           3.,          10.
   5050,           9.,           2.,           0.
   5051,           9.,           2.,           1.
   5052,           9.,           2.,           2.
   5053,           9.,           2.,           3.
   5054,           9.,           2.,           4.
   5055,           9.,           2.,           5.
   5056,           9.,           2.,           6.
   5057,           9.,           2.,           7.
   5058,           9.,           2.,           8.
   5059,           9.,           2.,           9.
   5060,           9.,           2.,          10.
   5061,           9.,           1.,           0.
   5062,           9.,           1.,           1.
   5063,           9.,           1.,           2.
   5064,           9.,           1.,           3.
   5065,           9.,           1.,           4.
   5066,           9.,           1.,           5.
   5067,           9.,           1.,           6.
   5068,           9.,           1.,           7.
   5069,           9.,           1.,           8.
   5070,           9.,           1.,           9.
   5071,           9.,           1.,          10.
   5072,           9.,           0.,           0.
   5073,           9.,           0.,           1.
   5074,           9.,           0.,           2.
   5075,           9.,           0.,           3.
   5076,           9.,           0.,           4.
   5077,           9.,           0.,           5.
   5078,           9.,           0.,           6.
   5079,           9.,           0.,           7.
   5080,           9.,           0.,           8.
   5081,           9.,           0.,           9.
   5082,           9.,           0.,          10.
   5083,           8.,          20.,           0.
   5084,           8.,          20.,           1.
   5085,           8.,          20.,           2.
   5086,           8.,          20.,           3.
   5087,           8.,          20.,           4.
   5088,           8.,          20.,           5.
   5089,           8.,          20.,           6.
   5090,           8.,          20.,           7.
   5091,           8.,          20.,           8.
   5092,           8.,          20.,           9.
   5093,           8.,          20.,          10.
   5094,           8.,          19.,           0.
   5095,           8.,          19.,           1.
   5096,           8.,          19.,           2.
   5097,           8.,          19.,           3.
   5098,           8.,          19.,           4.
   5099,           8.,          19.,           5.
   5100,           8.,          19.,           6.
   5101,           8.,          19.,           7.
   5102,           8.,          19.,           8.
   5103,           8.,          19.,           9.
   5104,           8.,          19.,          10.
   5105,           8.,          18.,           0.
   5106,           8.,          18.,           1.
   5107,           8.,          18.,           2.
   5108,           8.,          18.,           3.
   5109,           8.,          18.,           4.
   5110,           8.,          18.,           5.
   5111,           8.,          18.,           6.
   5112,           8.,          18.,           7.
   5113,           8.,          18.,           8.
   5114,           8.,          18.,           9.
   5115,           8.,          18.,          10.
   5116,           8.,          17.,           0.
   5117,           8.,          17.,           1.
   5118,           8.,          17.,           2.
   5119,           8.,          17.,           3.
   5120,           8.,          17.,           4.
   5121,           8.,          17.,           5.
   5122,           8.,          17.,           6.
   5123,           8.,          17.,           7.
   5124,           8.,          17.,           8.
   5125,           8.,          17.,           9.
   5126,           8.,          17.,          10.
   5127,           8.,          16.,           0.
   5128,           8.,          16.,           1.
   5129,           8.,          16.,           2.
   5130,           8.,          16.,           3.
   5131,           8.,          16.,           4.
   5132,           8.,          16.,           5.
   5133,           8.,          16.,           6.
   5134,           8.,          16.,           7.
   5135,           8.,          16.,           8.
   5136,           8.,          16.,           9.
   5137,           8.,          16.,          10.
   5138,           8.,          15.,           0.
   5139,           8.,          15.,           1.
   5140,           8.,          15.,           2.
   5141,           8.,          15.,           3.
   5142,           8.,          15.,           4.
   5143,           8.,          15.,           5.
   5144,           8.,          15.,           6.
   5145,           8.,          15.,           7.
   5146,           8.,          15.,           8.
   5147,           8.,          15.,           9.
   5148,           8.,          15.,          10.
   5149,           8.,          14.,           0.
   5150,           8.,          14.,           1.
   5151,           8.,          14.,           2.
   5152,           8.,          14.,           3.
   5153,           8.,          14.,           4.
   5154,           8.,          14.,           5.
   5155,           8.,          14.,           6.
   5156,           8.,          14.,           7.
   5157,           8.,          14.,           8.
   5158,           8.,          14.,           9.
   5159,           8.,          14.,          10.
   5160,           8.,          13.,           0.
   5161,           8.,          13.,           1.
   5162,           8.,          13.,           2.
   5163,           8.,          13.,           3.
   5164,           8.,          13.,           4.
   5165,           8.,          13.,           5.
   5166,           8.,          13.,           6.
   5167,           8.,          13.,           7.
   5168,           8.,          13.,           8.
   5169,           8.,          13.,           9.
   5170,           8.,          13.,          10.
   5171,           8.,          12.,           0.
   5172,           8.,          12.,           1.
   5173,           8.,          12.,           2.
   5174,           8.,          12.,           3.
   5175,           8.,          12.,           4.
   5176,           8.,          12.,           5.
   5177,           8.,          12.,           6.
   5178,           8.,          12.,           7.
   5179,           8.,          12.,           8.
   5180,           8.,          12.,           9.
   5181,           8.,          12.,          10.
   5182,           8.,          11.,           0.
   5183,           8.,          11.,           1.
   5184,           8.,          11.,           2.
   5185,           8.,          11.,           3.
   5186,           8.,          11.,           4.
   5187,           8.,          11.,           5.
   5188,           8.,          11.,           6.
   5189,           8.,          11.,           7.
   5190,           8.,          11.,           8.
   5191,           8.,          11.,           9.
   5192,           8.,          11.,          10.
   5193,           8.,          10.,           0.
   5194,           8.,          10.,           1.
   5195,           8.,          10.,           2.
   5196,           8.,          10.,           3.
   5197,           8.,          10.,           4.
   5198,           8.,          10.,           5.
   5199,           8.,          10.,           6.
   5200,           8.,          10.,           7.
   5201,           8.,          10.,           8.
   5202,           8.,          10.,           9.
   5203,           8.,          10.,          10.
   5204,           8.,           9.,           0.
   5205,           8.,           9.,           1.
   5206,           8.,           9.,           2.
   5207,           8.,           9.,           3.
   5208,           8.,           9.,           4.
   5209,           8.,           9.,           5.
   5210,           8.,           9.,           6.
   5211,           8.,           9.,           7.
   5212,           8.,           9.,           8.
   5213,           8.,           9.,           9.
   5214,           8.,           9.,          10.
   5215,           8.,           8.,           0.
   5216,           8.,           8.,           1.
   5217,           8.,           8.,           2.
   5218,           8.,           8.,           3.
   5219,           8.,           8.,           4.
   5220,           8.,           8.,           5.
   5221,           8.,           8.,           6.
   5222,           8.,           8.,           7.
   5223,           8.,           8.,           8.
   5224,           8.,           8.,           9.
   5225,           8.,           8.,          10.
   5226,           8.,           7.,           0.
   5227,           8.,           7.,           1.
   5228,           8.,           7.,           2.
   5229,           8.,           7.,           3.
   5230,           8.,           7.,           4.
   5231,           8.,           7.,           5.
   5232,           8.,           7.,           6.
   5233,           8.,           7.,           7.
   5234,           8.,           7.,           8.
   5235,           8.,           7.,           9.
   5236,           8.,           7.,          10.
   5237,           8.,           6.,           0.
   5238,           8.,           6.,           1.
   5239,           8.,           6.,           2.
   5240,           8.,           6.,           3.
   5241,           8.,           6.,           4.
   5242,           8.,           6.,           5.
   5243,           8.,           6.,           6.
   5244,           8.,           6.,           7.
   5245,           8.,           6.,           8.
   5246,           8.,           6.,           9.
   5247,           8.,           6.,          10.
   5248,           8.,           5.,           0.
   5249,           8.,           5.,           1.
   5250,           8.,           5.,           2.
   5251,           8.,           5.,           3.
   5252,           8.,           5.,           4.
   5253,           8.,           5.,           5.
   5254,           8.,           5.,           6.
   5255,           8.,           5.,           7.
   5256,           8.,           5.,           8.
   5257,           8.,           5.,           9.
   5258,           8.,           5.,          10.
   5259,           8.,           4.,           0.
   5260,           8.,           4.,           1.
   5261,           8.,           4.,           2.
   5262,           8.,           4.,           3.
   5263,           8.,           4.,           4.
   5264,           8.,           4.,           5.
   5265,           8.,           4.,           6.
   5266,           8.,           4.,           7.
   5267,           8.,           4.,           8.
   5268,           8.,           4.,           9.
   5269,           8.,           4.,          10.
   5270,           8.,           3.,           0.
   5271,           8.,           3.,           1.
   5272,           8.,           3.,           2.
   5273,           8.,           3.,           3.
   5274,           8.,           3.,           4.
   5275,           8.,           3.,           5.
   5276,           8.,           3.,           6.
   5277,           8.,           3.,           7.
   5278,           8.,           3.,           8.
   5279,           8.,           3.,           9.
   5280,           8.,           3.,          10.
   5281,           8.,           2.,           0.
   5282,           8.,           2.,           1.
   5283,           8.,           2.,           2.
   5284,           8.,           2.,           3.
   5285,           8.,           2.,           4.
   5286,           8.,           2.,           5.
   5287,           8.,           2.,           6.
   5288,           8.,           2.,           7.
   5289,           8.,           2.,           8.
   5290,           8.,           2.,           9.
   5291,           8.,           2.,          10.
   5292,           8.,           1.,           0.
   5293,           8.,           1.,           1.
   5294,           8.,           1.,           2.
   5295,           8.,           1.,           3.
   5296,           8.,           1.,           4.
   5297,           8.,           1.,           5.
   5298,           8.,           1.,           6.
   5299,           8.,           1.,           7.
   5300,           8.,           1.,           8.
   5301,           8.,           1.,           9.
   5302,           8.,           1.,          10.
   5303,           8.,           0.,           0.
   5304,           8.,           0.,           1.
   5305,           8.,           0.,           2.
   5306,           8.,           0.,           3.
   5307,           8.,           0.,           4.
   5308,           8.,           0.,           5.
   5309,           8.,           0.,           6.
   5310,           8.,           0.,           7.
   5311,           8.,           0.,           8.
   5312,           8.,           0.,           9.
   5313,           8.,           0.,          10.
   5314,           7.,          20.,           0.
   5315,           7.,          20.,           1.
   5316,           7.,          20.,           2.
   5317,           7.,          20.,           3.
   5318,           7.,          20.,           4.
   5319,           7.,          20.,           5.
   5320,           7.,          20.,           6.
   5321,           7.,          20.,           7.
   5322,           7.,          20.,           8.
   5323,           7.,          20.,           9.
   5324,           7.,          20.,          10.
   5325,           7.,          19.,           0.
   5326,           7.,          19.,           1.
   5327,           7.,          19.,           2.
   5328,           7.,          19.,           3.
   5329,           7.,          19.,           4.
   5330,           7.,          19.,           5.
   5331,           7.,          19.,           6.
   5332,           7.,          19.,           7.
   5333,           7.,          19.,           8.
   5334,           7.,          19.,           9.
   5335,           7.,          19.,          10.
   5336,           7.,          18.,           0.
   5337,           7.,          18.,           1.
   5338,           7.,          18.,           2.
   5339,           7.,          18.,           3.
   5340,           7.,          18.,           4.
   5341,           7.,          18.,           5.
   5342,           7.,          18.,           6.
   5343,           7.,          18.,           7.
   5344,           7.,          18.,           8.
   5345,           7.,          18.,           9.
   5346,           7.,          18.,          10.
   5347,           7.,          17.,           0.
   5348,           7.,          17.,           1.
   5349,           7.,          17.,           2.
   5350,           7.,          17.,           3.
   5351,           7.,          17.,           4.
   5352,           7.,          17.,           5.
   5353,           7.,          17.,           6.
   5354,           7.,          17.,           7.
   5355,           7.,          17.,           8.
   5356,           7.,          17.,           9.
   5357,           7.,          17.,          10.
   5358,           7.,          16.,           0.
   5359,           7.,          16.,           1.
   5360,           7.,          16.,           2.
   5361,           7.,          16.,           3.
   5362,           7.,          16.,           4.
   5363,           7.,          16.,           5.
   5364,           7.,          16.,           6.
   5365,           7.,          16.,           7.
   5366,           7.,          16.,           8.
   5367,           7.,          16.,           9.
   5368,           7.,          16.,          10.
   5369,           7.,          15.,           0.
   5370,           7.,          15.,           1.
   5371,           7.,          15.,           2.
   5372,           7.,          15.,           3.
   5373,           7.,          15.,           4.
   5374,           7.,          15.,           5.
   5375,           7.,          15.,           6.
   5376,           7.,          15.,           7.
   5377,           7.,          15.,           8.
   5378,           7.,          15.,           9.
   5379,           7.,          15.,          10.
   5380,           7.,          14.,           0.
   5381,           7.,          14.,           1.
   5382,           7.,          14.,           2.
   5383,           7.,          14.,           3.
   5384,           7.,          14.,           4.
   5385,           7.,          14.,           5.
   5386,           7.,          14.,           6.
   5387,           7.,          14.,           7.
   5388,           7.,          14.,           8.
   5389,           7.,          14.,           9.
   5390,           7.,          14.,          10.
   5391,           7.,          13.,           0.
   5392,           7.,          13.,           1.
   5393,           7.,          13.,           2.
   5394,           7.,          13.,           3.
   5395,           7.,          13.,           4.
   5396,           7.,          13.,           5.
   5397,           7.,          13.,           6.
   5398,           7.,          13.,           7.
   5399,           7.,          13.,           8.
   5400,           7.,          13.,           9.
   5401,           7.,          13.,          10.
   5402,           7.,          12.,           0.
   5403,           7.,          12.,           1.
   5404,           7.,          12.,           2.
   5405,           7.,          12.,           3.
   5406,           7.,          12.,           4.
   5407,           7.,          12.,           5.
   5408,           7.,          12.,           6.
   5409,           7.,          12.,           7.
   5410,           7.,          12.,           8.
   5411,           7.,          12.,           9.
   5412,           7.,          12.,          10.
   5413,           7.,          11.,           0.
   5414,           7.,          11.,           1.
   5415,           7.,          11.,           2.
   5416,           7.,          11.,           3.
   5417,           7.,          11.,           4.
   5418,           7.,          11.,           5.
   5419,           7.,          11.,           6.
   5420,           7.,          11.,           7.
   5421,           7.,          11.,           8.
   5422,           7.,          11.,           9.
   5423,           7.,          11.,          10.
   5424,           7.,          10.,           0.
   5425,           7.,          10.,           1.
   5426,           7.,          10.,           2.
   5427,           7.,          10.,           3.
   5428,           7.,          10.,           4.
   5429,           7.,          10.,           5.
   5430,           7.,          10.,           6.
   5431,           7.,          10.,           7.
   5432,           7.,          10.,           8.
   5433,           7.,          10.,           9.
   5434,           7.,          10.,          10.
   5435,           7.,           9.,           0.
   5436,           7.,           9.,           1.
   5437,           7.,           9.,           2.
   5438,           7.,           9.,           3.
   5439,           7.,           9.,           4.
   5440,           7.,           9.,           5.
   5441,           7.,           9.,           6.
   5442,           7.,           9.,           7.
   5443,           7.,           9.,           8.
   5444,           7.,           9.,           9.
   5445,           7.,           9.,          10.
   5446,           7.,           8.,           0.
   5447,           7.,           8.,           1.
   5448,           7.,           8.,           2.
   5449,           7.,           8.,           3.
   5450,           7.,           8.,           4.
   5451,           7.,           8.,           5.
   5452,           7.,           8.,           6.
   5453,           7.,           8.,           7.
   5454,           7.,           8.,           8.
   5455,           7.,           8.,           9.
   5456,           7.,           8.,          10.
   5457,           7.,           7.,           0.
   5458,           7.,           7.,           1.
   5459,           7.,           7.,           2.
   5460,           7.,           7.,           3.
   5461,           7.,           7.,           4.
   5462,           7.,           7.,           5.
   5463,           7.,           7.,           6.
   5464,           7.,           7.,           7.
   5465,           7.,           7.,           8.
   5466,           7.,           7.,           9.
   5467,           7.,           7.,          10.
   5468,           7.,           6.,           0.
   5469,           7.,           6.,           1.
   5470,           7.,           6.,           2.
   5471,           7.,           6.,           3.
   5472,           7.,           6.,           4.
   5473,           7.,           6.,           5.
   5474,           7.,           6.,           6.
   5475,           7.,           6.,           7.
   5476,           7.,           6.,           8.
   5477,           7.,           6.,           9.
   5478,           7.,           6.,          10.
   5479,           7.,           5.,           0.
   5480,           7.,           5.,           1.
   5481,           7.,           5.,           2.
   5482,           7.,           5.,           3.
   5483,           7.,           5.,           4.
   5484,           7.,           5.,           5.
   5485,           7.,           5.,           6.
   5486,           7.,           5.,           7.
   5487,           7.,           5.,           8.
   5488,           7.,           5.,           9.
   5489,           7.,           5.,          10.
   5490,           7.,           4.,           0.
   5491,           7.,           4.,           1.
   5492,           7.,           4.,           2.
   5493,           7.,           4.,           3.
   5494,           7.,           4.,           4.
   5495,           7.,           4.,           5.
   5496,           7.,           4.,           6.
   5497,           7.,           4.,           7.
   5498,           7.,           4.,           8.
   5499,           7.,           4.,           9.
   5500,           7.,           4.,          10.
   5501,           7.,           3.,           0.
   5502,           7.,           3.,           1.
   5503,           7.,           3.,           2.
   5504,           7.,           3.,           3.
   5505,           7.,           3.,           4.
   5506,           7.,           3.,           5.
   5507,           7.,           3.,           6.
   5508,           7.,           3.,           7.
   5509,           7.,           3.,           8.
   5510,           7.,           3.,           9.
   5511,           7.,           3.,          10.
   5512,           7.,           2.,           0.
   5513,           7.,           2.,           1.
   5514,           7.,           2.,           2.
   5515,           7.,           2.,           3.
   5516,           7.,           2.,           4.
   5517,           7.,           2.,           5.
   5518,           7.,           2.,           6.
   5519,           7.,           2.,           7.
   5520,           7.,           2.,           8.
   5521,           7.,           2.,           9.
   5522,           7.,           2.,          10.
   5523,           7.,           1.,           0.
   5524,           7.,           1.,           1.
   5525,           7.,           1.,           2.
   5526,           7.,           1.,           3.
   5527,           7.,           1.,           4.
   5528,           7.,           1.,           5.
   5529,           7.,           1.,           6.
   5530,           7.,           1.,           7.
   5531,           7.,           1.,           8.
   5532,           7.,           1.,           9.
   5533,           7.,           1.,          10.
   5534,           7.,           0.,           0.
   5535,           7.,           0.,           1.
   5536,           7.,           0.,           2.
   5537,           7.,           0.,           3.
   5538,           7.,           0.,           4.
   5539,           7.,           0.,           5.
   5540,           7.,           0.,           6.
   5541,           7.,           0.,           7.
   5542,           7.,           0.,           8.
   5543,           7.,           0.,           9.
   5544,           7.,           0.,          10.
   5545,           6.,          20.,           0.
   5546,           6.,          20.,           1.
   5547,           6.,          20.,           2.
   5548,           6.,          20.,           3.
   5549,           6.,          20.,           4.
   5550,           6.,          20.,           5.
   5551,           6.,          20.,           6.
   5552,           6.,          20.,           7.
   5553,           6.,          20.,           8.
   5554,           6.,          20.,           9.
   5555,           6.,          20.,          10.
   5556,           6.,          19.,           0.
   5557,           6.,          19.,           1.
   5558,           6.,          19.,           2.
   5559,           6.,          19.,           3.
   5560,           6.,          19.,           4.
   5561,           6.,          19.,           5.
   5562,           6.,          19.,           6.
   5563,           6.,          19.,           7.
   5564,           6.,          19.,           8.
   5565,           6.,          19.,           9.
   5566,           6.,          19.,          10.
   5567,           6.,          18.,           0.
   5568,           6.,          18.,           1.
   5569,           6.,          18.,           2.
   5570,           6.,          18.,           3.
   5571,           6.,          18.,           4.
   5572,           6.,          18.,           5.
   5573,           6.,          18.,           6.
   5574,           6.,          18.,           7.
   5575,           6.,          18.,           8.
   5576,           6.,          18.,           9.
   5577,           6.,          18.,          10.
   5578,           6.,          17.,           0.
   5579,           6.,          17.,           1.
   5580,           6.,          17.,           2.
   5581,           6.,          17.,           3.
   5582,           6.,          17.,           4.
   5583,           6.,          17.,           5.
   5584,           6.,          17.,           6.
   5585,           6.,          17.,           7.
   5586,           6.,          17.,           8.
   5587,           6.,          17.,           9.
   5588,           6.,          17.,          10.
   5589,           6.,          16.,           0.
   5590,           6.,          16.,           1.
   5591,           6.,          16.,           2.
   5592,           6.,          16.,           3.
   5593,           6.,          16.,           4.
   5594,           6.,          16.,           5.
   5595,           6.,          16.,           6.
   5596,           6.,          16.,           7.
   5597,           6.,          16.,           8.
   5598,           6.,          16.,           9.
   5599,           6.,          16.,          10.
   5600,           6.,          15.,           0.
   5601,           6.,          15.,           1.
   5602,           6.,          15.,           2.
   5603,           6.,          15.,           3.
   5604,           6.,          15.,           4.
   5605,           6.,          15.,           5.
   5606,           6.,          15.,           6.
   5607,           6.,          15.,           7.
   5608,           6.,          15.,           8.
   5609,           6.,          15.,           9.
   5610,           6.,          15.,          10.
   5611,           6.,          14.,           0.
   5612,           6.,          14.,           1.
   5613,           6.,          14.,           2.
   5614,           6.,          14.,           3.
   5615,           6.,          14.,           4.
   5616,           6.,          14.,           5.
   5617,           6.,          14.,           6.
   5618,           6.,          14.,           7.
   5619,           6.,          14.,           8.
   5620,           6.,          14.,           9.
   5621,           6.,          14.,          10.
   5622,           6.,          13.,           0.
   5623,           6.,          13.,           1.
   5624,           6.,          13.,           2.
   5625,           6.,          13.,           3.
   5626,           6.,          13.,           4.
   5627,           6.,          13.,           5.
   5628,           6.,          13.,           6.
   5629,           6.,          13.,           7.
   5630,           6.,          13.,           8.
   5631,           6.,          13.,           9.
   5632,           6.,          13.,          10.
   5633,           6.,          12.,           0.
   5634,           6.,          12.,           1.
   5635,           6.,          12.,           2.
   5636,           6.,          12.,           3.
   5637,           6.,          12.,           4.
   5638,           6.,          12.,           5.
   5639,           6.,          12.,           6.
   5640,           6.,          12.,           7.
   5641,           6.,          12.,           8.
   5642,           6.,          12.,           9.
   5643,           6.,          12.,          10.
   5644,           6.,          11.,           0.
   5645,           6.,          11.,           1.
   5646,           6.,          11.,           2.
   5647,           6.,          11.,           3.
   5648,           6.,          11.,           4.
   5649,           6.,          11.,           5.
   5650,           6.,          11.,           6.
   5651,           6.,          11.,           7.
   5652,           6.,          11.,           8.
   5653,           6.,          11.,           9.
   5654,           6.,          11.,          10.
   5655,           6.,          10.,           0.
   5656,           6.,          10.,           1.
   5657,           6.,          10.,           2.
   5658,           6.,          10.,           3.
   5659,           6.,          10.,           4.
   5660,           6.,          10.,           5.
   5661,           6.,          10.,           6.
   5662,           6.,          10.,           7.
   5663,           6.,          10.,           8.
   5664,           6.,          10.,           9.
   5665,           6.,          10.,          10.
   5666,           6.,           9.,           0.
   5667,           6.,           9.,           1.
   5668,           6.,           9.,           2.
   5669,           6.,           9.,           3.
   5670,           6.,           9.,           4.
   5671,           6.,           9.,           5.
   5672,           6.,           9.,           6.
   5673,           6.,           9.,           7.
   5674,           6.,           9.,           8.
   5675,           6.,           9.,           9.
   5676,           6.,           9.,          10.
   5677,           6.,           8.,           0.
   5678,           6.,           8.,           1.
   5679,           6.,           8.,           2.
   5680,           6.,           8.,           3.
   5681,           6.,           8.,           4.
   5682,           6.,           8.,           5.
   5683,           6.,           8.,           6.
   5684,           6.,           8.,           7.
   5685,           6.,           8.,           8.
   5686,           6.,           8.,           9.
   5687,           6.,           8.,          10.
   5688,           6.,           7.,           0.
   5689,           6.,           7.,           1.
   5690,           6.,           7.,           2.
   5691,           6.,           7.,           3.
   5692,           6.,           7.,           4.
   5693,           6.,           7.,           5.
   5694,           6.,           7.,           6.
   5695,           6.,           7.,           7.
   5696,           6.,           7.,           8.
   5697,           6.,           7.,           9.
   5698,           6.,           7.,          10.
   5699,           6.,           6.,           0.
   5700,           6.,           6.,           1.
   5701,           6.,           6.,           2.
   5702,           6.,           6.,           3.
   5703,           6.,           6.,           4.
   5704,           6.,           6.,           5.
   5705,           6.,           6.,           6.
   5706,           6.,           6.,           7.
   5707,           6.,           6.,           8.
   5708,           6.,           6.,           9.
   5709,           6.,           6.,          10.
   5710,           6.,           5.,           0.
   5711,           6.,           5.,           1.
   5712,           6.,           5.,           2.
   5713,           6.,           5.,           3.
   5714,           6.,           5.,           4.
   5715,           6.,           5.,           5.
   5716,           6.,           5.,           6.
   5717,           6.,           5.,           7.
   5718,           6.,           5.,           8.
   5719,           6.,           5.,           9.
   5720,           6.,           5.,          10.
   5721,           6.,           4.,           0.
   5722,           6.,           4.,           1.
   5723,           6.,           4.,           2.
   5724,           6.,           4.,           3.
   5725,           6.,           4.,           4.
   5726,           6.,           4.,           5.
   5727,           6.,           4.,           6.
   5728,           6.,           4.,           7.
   5729,           6.,           4.,           8.
   5730,           6.,           4.,           9.
   5731,           6.,           4.,          10.
   5732,           6.,           3.,           0.
   5733,           6.,           3.,           1.
   5734,           6.,           3.,           2.
   5735,           6.,           3.,           3.
   5736,           6.,           3.,           4.
   5737,           6.,           3.,           5.
   5738,           6.,           3.,           6.
   5739,           6.,           3.,           7.
   5740,           6.,           3.,           8.
   5741,           6.,           3.,           9.
   5742,           6.,           3.,          10.
   5743,           6.,           2.,           0.
   5744,           6.,           2.,           1.
   5745,           6.,           2.,           2.
   5746,           6.,           2.,           3.
   5747,           6.,           2.,           4.
   5748,           6.,           2.,           5.
   5749,           6.,           2.,           6.
   5750,           6.,           2.,           7.
   5751,           6.,           2.,           8.
   5752,           6.,           2.,           9.
   5753,           6.,           2.,          10.
   5754,           6.,           1.,           0.
   5755,           6.,           1.,           1.
   5756,           6.,           1.,           2.
   5757,           6.,           1.,           3.
   5758,           6.,           1.,           4.
   5759,           6.,           1.,           5.
   5760,           6.,           1.,           6.
   5761,           6.,           1.,           7.
   5762,           6.,           1.,           8.
   5763,           6.,           1.,           9.
   5764,           6.,           1.,          10.
   5765,           6.,           0.,           0.
   5766,           6.,           0.,           1.
   5767,           6.,           0.,           2.
   5768,           6.,           0.,           3.
   5769,           6.,           0.,           4.
   5770,           6.,           0.,           5.
   5771,           6.,           0.,           6.
   5772,           6.,           0.,           7.
   5773,           6.,           0.,           8.
   5774,           6.,           0.,           9.
   5775,           6.,           0.,          10.
   5776,           5.,          20.,           0.
   5777,           5.,          20.,           1.
   5778,           5.,          20.,           2.
   5779,           5.,          20.,           3.
   5780,           5.,          20.,           4.
   5781,           5.,          20.,           5.
   5782,           5.,          20.,           6.
   5783,           5.,          20.,           7.
   5784,           5.,          20.,           8.
   5785,           5.,          20.,           9.
   5786,           5.,          20.,          10.
   5787,           5.,          19.,           0.
   5788,           5.,          19.,           1.
   5789,           5.,          19.,           2.
   5790,           5.,          19.,           3.
   5791,           5.,          19.,           4.
   5792,           5.,          19.,           5.
   5793,           5.,          19.,           6.
   5794,           5.,          19.,           7.
   5795,           5.,          19.,           8.
   5796,           5.,          19.,           9.
   5797,           5.,          19.,          10.
   5798,           5.,          18.,           0.
   5799,           5.,          18.,           1.
   5800,           5.,          18.,           2.
   5801,           5.,          18.,           3.
   5802,           5.,          18.,           4.
   5803,           5.,          18.,           5.
   5804,           5.,          18.,           6.
   5805,           5.,          18.,           7.
   5806,           5.,          18.,           8.
   5807,           5.,          18.,           9.
   5808,           5.,          18.,          10.
   5809,           5.,          17.,           0.
   5810,           5.,          17.,           1.
   5811,           5.,          17.,           2.
   5812,           5.,          17.,           3.
   5813,           5.,          17.,           4.
   5814,           5.,          17.,           5.
   5815,           5.,          17.,           6.
   5816,           5.,          17.,           7.
   5817,           5.,          17.,           8.
   5818,           5.,          17.,           9.
   5819,           5.,          17.,          10.
   5820,           5.,          16.,           0.
   5821,           5.,          16.,           1.
   5822,           5.,          16.,           2.
   5823,           5.,          16.,           3.
   5824,           5.,          16.,           4.
   5825,           5.,          16.,           5.
   5826,           5.,          16.,           6.
   5827,           5.,          16.,           7.
   5828,           5.,          16.,           8.
   5829,           5.,          16.,           9.
   5830,           5.,          16.,          10.
   5831,           5.,          15.,           0.
   5832,           5.,          15.,           1.
   5833,           5.,          15.,           2.
   5834,           5.,          15.,           3.
   5835,           5.,          15.,           4.
   5836,           5.,          15.,           5.
   5837,           5.,          15.,           6.
   5838,           5.,          15.,           7.
   5839,           5.,          15.,           8.
   5840,           5.,          15.,           9.
   5841,           5.,          15.,          10.
   5842,           5.,          14.,           0.
   5843,           5.,          14.,           1.
   5844,           5.,          14.,           2.
   5845,           5.,          14.,           3.
   5846,           5.,          14.,           4.
   5847,           5.,          14.,           5.
   5848,           5.,          14.,           6.
   5849,           5.,          14.,           7.
   5850,           5.,          14.,           8.
   5851,           5.,          14.,           9.
   5852,           5.,          14.,          10.
   5853,           5.,          13.,           0.
   5854,           5.,          13.,           1.
   5855,           5.,          13.,           2.
   5856,           5.,          13.,           3.
   5857,           5.,          13.,           4.
   5858,           5.,          13.,           5.
   5859,           5.,          13.,           6.
   5860,           5.,          13.,           7.
   5861,           5.,          13.,           8.
   5862,           5.,          13.,           9.
   5863,           5.,          13.,          10.
   5864,           5.,          12.,           0.
   5865,           5.,          12.,           1.
   5866,           5.,          12.,           2.
   5867,           5.,          12.,           3.
   5868,           5.,          12.,           4.
   5869,           5.,          12.,           5.
   5870,           5.,          12.,           6.
   5871,           5.,          12.,           7.
   5872,           5.,          12.,           8.
   5873,           5.,          12.,           9.
   5874,           5.,          12.,          10.
   5875,           5.,          11.,           0.
   5876,           5.,          11.,           1.
   5877,           5.,          11.,           2.
   5878,           5.,          11.,           3.
   5879,           5.,          11.,           4.
   5880,           5.,          11.,           5.
   5881,           5.,          11.,           6.
   5882,           5.,          11.,           7.
   5883,           5.,          11.,           8.
   5884,           5.,          11.,           9.
   5885,           5.,          11.,          10.
   5886,           5.,          10.,           0.
   5887,           5.,          10.,           1.
   5888,           5.,          10.,           2.
   5889,           5.,          10.,           3.
   5890,           5.,          10.,           4.
   5891,           5.,          10.,           5.
   5892,           5.,          10.,           6.
   5893,           5.,          10.,           7.
   5894,           5.,          10.,           8.
   5895,           5.,          10.,           9.
   5896,           5.,          10.,          10.
   5897,           5.,           9.,           0.
   5898,           5.,           9.,           1.
   5899,           5.,           9.,           2.
   5900,           5.,           9.,           3.
   5901,           5.,           9.,           4.
   5902,           5.,           9.,           5.
   5903,           5.,           9.,           6.
   5904,           5.,           9.,           7.
   5905,           5.,           9.,           8.
   5906,           5.,           9.,           9.
   5907,           5.,           9.,          10.
   5908,           5.,           8.,           0.
   5909,           5.,           8.,           1.
   5910,           5.,           8.,           2.
   5911,           5.,           8.,           3.
   5912,           5.,           8.,           4.
   5913,           5.,           8.,           5.
   5914,           5.,           8.,           6.
   5915,           5.,           8.,           7.
   5916,           5.,           8.,           8.
   5917,           5.,           8.,           9.
   5918,           5.,           8.,          10.
   5919,           5.,           7.,           0.
   5920,           5.,           7.,           1.
   5921,           5.,           7.,           2.
   5922,           5.,           7.,           3.
   5923,           5.,           7.,           4.
   5924,           5.,           7.,           5.
   5925,           5.,           7.,           6.
   5926,           5.,           7.,           7.
   5927,           5.,           7.,           8.
   5928,           5.,           7.,           9.
   5929,           5.,           7.,          10.
   5930,           5.,           6.,           0.
   5931,           5.,           6.,           1.
   5932,           5.,           6.,           2.
   5933,           5.,           6.,           3.
   5934,           5.,           6.,           4.
   5935,           5.,           6.,           5.
   5936,           5.,           6.,           6.
   5937,           5.,           6.,           7.
   5938,           5.,           6.,           8.
   5939,           5.,           6.,           9.
   5940,           5.,           6.,          10.
   5941,           5.,           5.,           0.
   5942,           5.,           5.,           1.
   5943,           5.,           5.,           2.
   5944,           5.,           5.,           3.
   5945,           5.,           5.,           4.
   5946,           5.,           5.,           5.
   5947,           5.,           5.,           6.
   5948,           5.,           5.,           7.
   5949,           5.,           5.,           8.
   5950,           5.,           5.,           9.
   5951,           5.,           5.,          10.
   5952,           5.,           4.,           0.
   5953,           5.,           4.,           1.
   5954,           5.,           4.,           2.
   5955,           5.,           4.,           3.
   5956,           5.,           4.,           4.
   5957,           5.,           4.,           5.
   5958,           5.,           4.,           6.
   5959,           5.,           4.,           7.
   5960,           5.,           4.,           8.
   5961,           5.,           4.,           9.
   5962,           5.,           4.,          10.
   5963,           5.,           3.,           0.
   5964,           5.,           3.,           1.
   5965,           5.,           3.,           2.
   5966,           5.,           3.,           3.
   5967,           5.,           3.,           4.
   5968,           5.,           3.,           5.
   5969,           5.,           3.,           6.
   5970,           5.,           3.,           7.
   5971,           5.,           3.,           8.
   5972,           5.,           3.,           9.
   5973,           5.,           3.,          10.
   5974,           5.,           2.,           0.
   5975,           5.,           2.,           1.
   5976,           5.,           2.,           2.
   5977,           5.,           2.,           3.
   5978,           5.,           2.,           4.
   5979,           5.,           2.,           5.
   5980,           5.,           2.,           6.
   5981,           5.,           2.,           7.
   5982,           5.,           2.,           8.
   5983,           5.,           2.,           9.
   5984,           5.,           2.,          10.
   5985,           5.,           1.,           0.
   5986,           5.,           1.,           1.
   5987,           5.,           1.,           2.
   5988,           5.,           1.,           3.
   5989,           5.,           1.,           4.
   5990,           5.,           1.,           5.
   5991,           5.,           1.,           6.
   5992,           5.,           1.,           7.
   5993,           5.,           1.,           8.
   5994,           5.,           1.,           9.
   5995,           5.,           1.,          10.
   5996,           5.,           0.,           0.
   5997,           5.,           0.,           1.
   5998,           5.,           0.,           2.
   5999,           5.,           0.,           3.
   6000,           5.,           0.,           4.
   6001,           5.,           0.,           5.
   6002,           5.,           0.,           6.
   6003,           5.,           0.,           7.
   6004,           5.,           0.,           8.
   6005,           5.,           0.,           9.
   6006,           5.,           0.,          10.
   6007,           4.,          20.,           0.
   6008,           4.,          20.,           1.
   6009,           4.,          20.,           2.
   6010,           4.,          20.,           3.
   6011,           4.,          20.,           4.
   6012,           4.,          20.,           5.
   6013,           4.,          20.,           6.
   6014,           4.,          20.,           7.
   6015,           4.,          20.,           8.
   6016,           4.,          20.,           9.
   6017,           4.,          20.,          10.
   6018,           4.,          19.,           0.
   6019,           4.,          19.,           1.
   6020,           4.,          19.,           2.
   6021,           4.,          19.,           3.
   6022,           4.,          19.,           4.
   6023,           4.,          19.,           5.
   6024,           4.,          19.,           6.
   6025,           4.,          19.,           7.
   6026,           4.,          19.,           8.
   6027,           4.,          19.,           9.
   6028,           4.,          19.,          10.
   6029,           4.,          18.,           0.
   6030,           4.,          18.,           1.
   6031,           4.,          18.,           2.
   6032,           4.,          18.,           3.
   6033,           4.,          18.,           4.
   6034,           4.,          18.,           5.
   6035,           4.,          18.,           6.
   6036,           4.,          18.,           7.
   6037,           4.,          18.,           8.
   6038,           4.,          18.,           9.
   6039,           4.,          18.,          10.
   6040,           4.,          17.,           0.
   6041,           4.,          17.,           1.
   6042,           4.,          17.,           2.
   6043,           4.,          17.,           3.
   6044,           4.,          17.,           4.
   6045,           4.,          17.,           5.
   6046,           4.,          17.,           6.
   6047,           4.,          17.,           7.
   6048,           4.,          17.,           8.
   6049,           4.,          17.,           9.
   6050,           4.,          17.,          10.
   6051,           4.,          16.,           0.
   6052,           4.,          16.,           1.
   6053,           4.,          16.,           2.
   6054,           4.,          16.,           3.
   6055,           4.,          16.,           4.
   6056,           4.,          16.,           5.
   6057,           4.,          16.,           6.
   6058,           4.,          16.,           7.
   6059,           4.,          16.,           8.
   6060,           4.,          16.,           9.
   6061,           4.,          16.,          10.
   6062,           4.,          15.,           0.
   6063,           4.,          15.,           1.
   6064,           4.,          15.,           2.
   6065,           4.,          15.,           3.
   6066,           4.,          15.,           4.
   6067,           4.,          15.,           5.
   6068,           4.,          15.,           6.
   6069,           4.,          15.,           7.
   6070,           4.,          15.,           8.
   6071,           4.,          15.,           9.
   6072,           4.,          15.,          10.
   6073,           4.,          14.,           0.
   6074,           4.,          14.,           1.
   6075,           4.,          14.,           2.
   6076,           4.,          14.,           3.
   6077,           4.,          14.,           4.
   6078,           4.,          14.,           5.
   6079,           4.,          14.,           6.
   6080,           4.,          14.,           7.
   6081,           4.,          14.,           8.
   6082,           4.,          14.,           9.
   6083,           4.,          14.,          10.
   6084,           4.,          13.,           0.
   6085,           4.,          13.,           1.
   6086,           4.,          13.,           2.
   6087,           4.,          13.,           3.
   6088,           4.,          13.,           4.
   6089,           4.,          13.,           5.
   6090,           4.,          13.,           6.
   6091,           4.,          13.,           7.
   6092,           4.,          13.,           8.
   6093,           4.,          13.,           9.
   6094,           4.,          13.,          10.
   6095,           4.,          12.,           0.
   6096,           4.,          12.,           1.
   6097,           4.,          12.,           2.
   6098,           4.,          12.,           3.
   6099,           4.,          12.,           4.
   6100,           4.,          12.,           5.
   6101,           4.,          12.,           6.
   6102,           4.,          12.,           7.
   6103,           4.,          12.,           8.
   6104,           4.,          12.,           9.
   6105,           4.,          12.,          10.
   6106,           4.,          11.,           0.
   6107,           4.,          11.,           1.
   6108,           4.,          11.,           2.
   6109,           4.,          11.,           3.
   6110,           4.,          11.,           4.
   6111,           4.,          11.,           5.
   6112,           4.,          11.,           6.
   6113,           4.,          11.,           7.
   6114,           4.,          11.,           8.
   6115,           4.,          11.,           9.
   6116,           4.,          11.,          10.
   6117,           4.,          10.,           0.
   6118,           4.,          10.,           1.
   6119,           4.,          10.,           2.
   6120,           4.,          10.,           3.
   6121,           4.,          10.,           4.
   6122,           4.,          10.,           5.
   6123,           4.,          10.,           6.
   6124,           4.,          10.,           7.
   6125,           4.,          10.,           8.
   6126,           4.,          10.,           9.
   6127,           4.,          10.,          10.
   6128,           4.,           9.,           0.
   6129,           4.,           9.,           1.
   6130,           4.,           9.,           2.
   6131,           4.,           9.,           3.
   6132,           4.,           9.,           4.
   6133,           4.,           9.,           5.
   6134,           4.,           9.,           6.
   6135,           4.,           9.,           7.
   6136,           4.,           9.,           8.
   6137,           4.,           9.,           9.
   6138,           4.,           9.,          10.
   6139,           4.,           8.,           0.
   6140,           4.,           8.,           1.
   6141,           4.,           8.,           2.
   6142,           4.,           8.,           3.
   6143,           4.,           8.,           4.
   6144,           4.,           8.,           5.
   6145,           4.,           8.,           6.
   6146,           4.,           8.,           7.
   6147,           4.,           8.,           8.
   6148,           4.,           8.,           9.
   6149,           4.,           8.,          10.
   6150,           4.,           7.,           0.
   6151,           4.,           7.,           1.
   6152,           4.,           7.,           2.
   6153,           4.,           7.,           3.
   6154,           4.,           7.,           4.
   6155,           4.,           7.,           5.
   6156,           4.,           7.,           6.
   6157,           4.,           7.,           7.
   6158,           4.,           7.,           8.
   6159,           4.,           7.,           9.
   6160,           4.,           7.,          10.
   6161,           4.,           6.,           0.
   6162,           4.,           6.,           1.
   6163,           4.,           6.,           2.
   6164,           4.,           6.,           3.
   6165,           4.,           6.,           4.
   6166,           4.,           6.,           5.
   6167,           4.,           6.,           6.
   6168,           4.,           6.,           7.
   6169,           4.,           6.,           8.
   6170,           4.,           6.,           9.
   6171,           4.,           6.,          10.
   6172,           4.,           5.,           0.
   6173,           4.,           5.,           1.
   6174,           4.,           5.,           2.
   6175,           4.,           5.,           3.
   6176,           4.,           5.,           4.
   6177,           4.,           5.,           5.
   6178,           4.,           5.,           6.
   6179,           4.,           5.,           7.
   6180,           4.,           5.,           8.
   6181,           4.,           5.,           9.
   6182,           4.,           5.,          10.
   6183,           4.,           4.,           0.
   6184,           4.,           4.,           1.
   6185,           4.,           4.,           2.
   6186,           4.,           4.,           3.
   6187,           4.,           4.,           4.
   6188,           4.,           4.,           5.
   6189,           4.,           4.,           6.
   6190,           4.,           4.,           7.
   6191,           4.,           4.,           8.
   6192,           4.,           4.,           9.
   6193,           4.,           4.,          10.
   6194,           4.,           3.,           0.
   6195,           4.,           3.,           1.
   6196,           4.,           3.,           2.
   6197,           4.,           3.,           3.
   6198,           4.,           3.,           4.
   6199,           4.,           3.,           5.
   6200,           4.,           3.,           6.
   6201,           4.,           3.,           7.
   6202,           4.,           3.,           8.
   6203,           4.,           3.,           9.
   6204,           4.,           3.,          10.
   6205,           4.,           2.,           0.
   6206,           4.,           2.,           1.
   6207,           4.,           2.,           2.
   6208,           4.,           2.,           3.
   6209,           4.,           2.,           4.
   6210,           4.,           2.,           5.
   6211,           4.,           2.,           6.
   6212,           4.,           2.,           7.
   6213,           4.,           2.,           8.
   6214,           4.,           2.,           9.
   6215,           4.,           2.,          10.
   6216,           4.,           1.,           0.
   6217,           4.,           1.,           1.
   6218,           4.,           1.,           2.
   6219,           4.,           1.,           3.
   6220,           4.,           1.,           4.
   6221,           4.,           1.,           5.
   6222,           4.,           1.,           6.
   6223,           4.,           1.,           7.
   6224,           4.,           1.,           8.
   6225,           4.,           1.,           9.
   6226,           4.,           1.,          10.
   6227,           4.,           0.,           0.
   6228,           4.,           0.,           1.
   6229,           4.,           0.,           2.
   6230,           4.,           0.,           3.
   6231,           4.,           0.,           4.
   6232,           4.,           0.,           5.
   6233,           4.,           0.,           6.
   6234,           4.,           0.,           7.
   6235,           4.,           0.,           8.
   6236,           4.,           0.,           9.
   6237,           4.,           0.,          10.
   6238,           3.,          20.,           0.
   6239,           3.,          20.,           1.
   6240,           3.,          20.,           2.
   6241,           3.,          20.,           3.
   6242,           3.,          20.,           4.
   6243,           3.,          20.,           5.
   6244,           3.,          20.,           6.
   6245,           3.,          20.,           7.
   6246,           3.,          20.,           8.
   6247,           3.,          20.,           9.
   6248,           3.,          20.,          10.
   6249,           3.,          19.,           0.
   6250,           3.,          19.,           1.
   6251,           3.,          19.,           2.
   6252,           3.,          19.,           3.
   6253,           3.,          19.,           4.
   6254,           3.,          19.,           5.
   6255,           3.,          19.,           6.
   6256,           3.,          19.,           7.
   6257,           3.,          19.,           8.
   6258,           3.,          19.,           9.
   6259,           3.,          19.,          10.
   6260,           3.,          18.,           0.
   6261,           3.,          18.,           1.
   6262,           3.,          18.,           2.
   6263,           3.,          18.,           3.
   6264,           3.,          18.,           4.
   6265,           3.,          18.,           5.
   6266,           3.,          18.,           6.
   6267,           3.,          18.,           7.
   6268,           3.,          18.,           8.
   6269,           3.,          18.,           9.
   6270,           3.,          18.,          10.
   6271,           3.,          17.,           0.
   6272,           3.,          17.,           1.
   6273,           3.,          17.,           2.
   6274,           3.,          17.,           3.
   6275,           3.,          17.,           4.
   6276,           3.,          17.,           5.
   6277,           3.,          17.,           6.
   6278,           3.,          17.,           7.
   6279,           3.,          17.,           8.
   6280,           3.,          17.,           9.
   6281,           3.,          17.,          10.
   6282,           3.,          16.,           0.
   6283,           3.,          16.,           1.
   6284,           3.,          16.,           2.
   6285,           3.,          16.,           3.
   6286,           3.,          16.,           4.
   6287,           3.,          16.,           5.
   6288,           3.,          16.,           6.
   6289,           3.,          16.,           7.
   6290,           3.,          16.,           8.
   6291,           3.,          16.,           9.
   6292,           3.,          16.,          10.
   6293,           3.,          15.,           0.
   6294,           3.,          15.,           1.
   6295,           3.,          15.,           2.
   6296,           3.,          15.,           3.
   6297,           3.,          15.,           4.
   6298,           3.,          15.,           5.
   6299,           3.,          15.,           6.
   6300,           3.,          15.,           7.
   6301,           3.,          15.,           8.
   6302,           3.,          15.,           9.
   6303,           3.,          15.,          10.
   6304,           3.,          14.,           0.
   6305,           3.,          14.,           1.
   6306,           3.,          14.,           2.
   6307,           3.,          14.,           3.
   6308,           3.,          14.,           4.
   6309,           3.,          14.,           5.
   6310,           3.,          14.,           6.
   6311,           3.,          14.,           7.
   6312,           3.,          14.,           8.
   6313,           3.,          14.,           9.
   6314,           3.,          14.,          10.
   6315,           3.,          13.,           0.
   6316,           3.,          13.,           1.
   6317,           3.,          13.,           2.
   6318,           3.,          13.,           3.
   6319,           3.,          13.,           4.
   6320,           3.,          13.,           5.
   6321,           3.,          13.,           6.
   6322,           3.,          13.,           7.
   6323,           3.,          13.,           8.
   6324,           3.,          13.,           9.
   6325,           3.,          13.,          10.
   6326,           3.,          12.,           0.
   6327,           3.,          12.,           1.
   6328,           3.,          12.,           2.
   6329,           3.,          12.,           3.
   6330,           3.,          12.,           4.
   6331,           3.,          12.,           5.
   6332,           3.,          12.,           6.
   6333,           3.,          12.,           7.
   6334,           3.,          12.,           8.
   6335,           3.,          12.,           9.
   6336,           3.,          12.,          10.
   6337,           3.,          11.,           0.
   6338,           3.,          11.,           1.
   6339,           3.,          11.,           2.
   6340,           3.,          11.,           3.
   6341,           3.,          11.,           4.
   6342,           3.,          11.,           5.
   6343,           3.,          11.,           6.
   6344,           3.,          11.,           7.
   6345,           3.,          11.,           8.
   6346,           3.,          11.,           9.
   6347,           3.,          11.,          10.
   6348,           3.,          10.,           0.
   6349,           3.,          10.,           1.
   6350,           3.,          10.,           2.
   6351,           3.,          10.,           3.
   6352,           3.,          10.,           4.
   6353,           3.,          10.,           5.
   6354,           3.,          10.,           6.
   6355,           3.,          10.,           7.
   6356,           3.,          10.,           8.
   6357,           3.,          10.,           9.
   6358,           3.,          10.,          10.
   6359,           3.,           9.,           0.
   6360,           3.,           9.,           1.
   6361,           3.,           9.,           2.
   6362,           3.,           9.,           3.
   6363,           3.,           9.,           4.
   6364,           3.,           9.,           5.
   6365,           3.,           9.,           6.
   6366,           3.,           9.,           7.
   6367,           3.,           9.,           8.
   6368,           3.,           9.,           9.
   6369,           3.,           9.,          10.
   6370,           3.,           8.,           0.
   6371,           3.,           8.,           1.
   6372,           3.,           8.,           2.
   6373,           3.,           8.,           3.
   6374,           3.,           8.,           4.
   6375,           3.,           8.,           5.
   6376,           3.,           8.,           6.
   6377,           3.,           8.,           7.
   6378,           3.,           8.,           8.
   6379,           3.,           8.,           9.
   6380,           3.,           8.,          10.
   6381,           3.,           7.,           0.
   6382,           3.,           7.,           1.
   6383,           3.,           7.,           2.
   6384,           3.,           7.,           3.
   6385,           3.,           7.,           4.
   6386,           3.,           7.,           5.
   6387,           3.,           7.,           6.
   6388,           3.,           7.,           7.
   6389,           3.,           7.,           8.
   6390,           3.,           7.,           9.
   6391,           3.,           7.,          10.
   6392,           3.,           6.,           0.
   6393,           3.,           6.,           1.
   6394,           3.,           6.,           2.
   6395,           3.,           6.,           3.
   6396,           3.,           6.,           4.
   6397,           3.,           6.,           5.
   6398,           3.,           6.,           6.
   6399,           3.,           6.,           7.
   6400,           3.,           6.,           8.
   6401,           3.,           6.,           9.
   6402,           3.,           6.,          10.
   6403,           3.,           5.,           0.
   6404,           3.,           5.,           1.
   6405,           3.,           5.,           2.
   6406,           3.,           5.,           3.
   6407,           3.,           5.,           4.
   6408,           3.,           5.,           5.
   6409,           3.,           5.,           6.
   6410,           3.,           5.,           7.
   6411,           3.,           5.,           8.
   6412,           3.,           5.,           9.
   6413,           3.,           5.,          10.
   6414,           3.,           4.,           0.
   6415,           3.,           4.,           1.
   6416,           3.,           4.,           2.
   6417,           3.,           4.,           3.
   6418,           3.,           4.,           4.
   6419,           3.,           4.,           5.
   6420,           3.,           4.,           6.
   6421,           3.,           4.,           7.
   6422,           3.,           4.,           8.
   6423,           3.,           4.,           9.
   6424,           3.,           4.,          10.
   6425,           3.,           3.,           0.
   6426,           3.,           3.,           1.
   6427,           3.,           3.,           2.
   6428,           3.,           3.,           3.
   6429,           3.,           3.,           4.
   6430,           3.,           3.,           5.
   6431,           3.,           3.,           6.
   6432,           3.,           3.,           7.
   6433,           3.,           3.,           8.
   6434,           3.,           3.,           9.
   6435,           3.,           3.,          10.
   6436,           3.,           2.,           0.
   6437,           3.,           2.,           1.
   6438,           3.,           2.,           2.
   6439,           3.,           2.,           3.
   6440,           3.,           2.,           4.
   6441,           3.,           2.,           5.
   6442,           3.,           2.,           6.
   6443,           3.,           2.,           7.
   6444,           3.,           2.,           8.
   6445,           3.,           2.,           9.
   6446,           3.,           2.,          10.
   6447,           3.,           1.,           0.
   6448,           3.,           1.,           1.
   6449,           3.,           1.,           2.
   6450,           3.,           1.,           3.
   6451,           3.,           1.,           4.
   6452,           3.,           1.,           5.
   6453,           3.,           1.,           6.
   6454,           3.,           1.,           7.
   6455,           3.,           1.,           8.
   6456,           3.,           1.,           9.
   6457,           3.,           1.,          10.
   6458,           3.,           0.,           0.
   6459,           3.,           0.,           1.
   6460,           3.,           0.,           2.
   6461,           3.,           0.,           3.
   6462,           3.,           0.,           4.
   6463,           3.,           0.,           5.
   6464,           3.,           0.,           6.
   6465,           3.,           0.,           7.
   6466,           3.,           0.,           8.
   6467,           3.,           0.,           9.
   6468,           3.,           0.,          10.
   6469,           2.,          20.,           0.
   6470,           2.,          20.,           1.
   6471,           2.,          20.,           2.
   6472,           2.,          20.,           3.
   6473,           2.,          20.,           4.
   6474,           2.,          20.,           5.
   6475,           2.,          20.,           6.
   6476,           2.,          20.,           7.
   6477,           2.,          20.,           8.
   6478,           2.,          20.,           9.
   6479,           2.,          20.,          10.
   6480,           2.,          19.,           0.
   6481,           2.,          19.,           1.
   6482,           2.,          19.,           2.
   6483,           2.,          19.,           3.
   6484,           2.,          19.,           4.
   6485,           2.,          19.,           5.
   6486,           2.,          19.,           6.
   6487,           2.,          19.,           7.
   6488,           2.,          19.,           8.
   6489,           2.,          19.,           9.
   6490,           2.,          19.,          10.
   6491,           2.,          18.,           0.
   6492,           2.,          18.,           1.
   6493,           2.,          18.,           2.
   6494,           2.,          18.,           3.
   6495,           2.,          18.,           4.
   6496,           2.,          18.,           5.
   6497,           2.,          18.,           6.
   6498,           2.,          18.,           7.
   6499,           2.,          18.,           8.
   6500,           2.,          18.,           9.
   6501,           2.,          18.,          10.
   6502,           2.,          17.,           0.
   6503,           2.,          17.,           1.
   6504,           2.,          17.,           2.
   6505,           2.,          17.,           3.
   6506,           2.,          17.,           4.
   6507,           2.,          17.,           5.
   6508,           2.,          17.,           6.
   6509,           2.,          17.,           7.
   6510,           2.,          17.,           8.
   6511,           2.,          17.,           9.
   6512,           2.,          17.,          10.
   6513,           2.,          16.,           0.
   6514,           2.,          16.,           1.
   6515,           2.,          16.,           2.
   6516,           2.,          16.,           3.
   6517,           2.,          16.,           4.
   6518,           2.,          16.,           5.
   6519,           2.,          16.,           6.
   6520,           2.,          16.,           7.
   6521,           2.,          16.,           8.
   6522,           2.,          16.,           9.
   6523,           2.,          16.,          10.
   6524,           2.,          15.,           0.
   6525,           2.,          15.,           1.
   6526,           2.,          15.,           2.
   6527,           2.,          15.,           3.
   6528,           2.,          15.,           4.
   6529,           2.,          15.,           5.
   6530,           2.,          15.,           6.
   6531,           2.,          15.,           7.
   6532,           2.,          15.,           8.
   6533,           2.,          15.,           9.
   6534,           2.,          15.,          10.
   6535,           2.,          14.,           0.
   6536,           2.,          14.,           1.
   6537,           2.,          14.,           2.
   6538,           2.,          14.,           3.
   6539,           2.,          14.,           4.
   6540,           2.,          14.,           5.
   6541,           2.,          14.,           6.
   6542,           2.,          14.,           7.
   6543,           2.,          14.,           8.
   6544,           2.,          14.,           9.
   6545,           2.,          14.,          10.
   6546,           2.,          13.,           0.
   6547,           2.,          13.,           1.
   6548,           2.,          13.,           2.
   6549,           2.,          13.,           3.
   6550,           2.,          13.,           4.
   6551,           2.,          13.,           5.
   6552,           2.,          13.,           6.
   6553,           2.,          13.,           7.
   6554,           2.,          13.,           8.
   6555,           2.,          13.,           9.
   6556,           2.,          13.,          10.
   6557,           2.,          12.,           0.
   6558,           2.,          12.,           1.
   6559,           2.,          12.,           2.
   6560,           2.,          12.,           3.
   6561,           2.,          12.,           4.
   6562,           2.,          12.,           5.
   6563,           2.,          12.,           6.
   6564,           2.,          12.,           7.
   6565,           2.,          12.,           8.
   6566,           2.,          12.,           9.
   6567,           2.,          12.,          10.
   6568,           2.,          11.,           0.
   6569,           2.,          11.,           1.
   6570,           2.,          11.,           2.
   6571,           2.,          11.,           3.
   6572,           2.,          11.,           4.
   6573,           2.,          11.,           5.
   6574,           2.,          11.,           6.
   6575,           2.,          11.,           7.
   6576,           2.,          11.,           8.
   6577,           2.,          11.,           9.
   6578,           2.,          11.,          10.
   6579,           2.,          10.,           0.
   6580,           2.,          10.,           1.
   6581,           2.,          10.,           2.
   6582,           2.,          10.,           3.
   6583,           2.,          10.,           4.
   6584,           2.,          10.,           5.
   6585,           2.,          10.,           6.
   6586,           2.,          10.,           7.
   6587,           2.,          10.,           8.
   6588,           2.,          10.,           9.
   6589,           2.,          10.,          10.
   6590,           2.,           9.,           0.
   6591,           2.,           9.,           1.
   6592,           2.,           9.,           2.
   6593,           2.,           9.,           3.
   6594,           2.,           9.,           4.
   6595,           2.,           9.,           5.
   6596,           2.,           9.,           6.
   6597,           2.,           9.,           7.
   6598,           2.,           9.,           8.
   6599,           2.,           9.,           9.
   6600,           2.,           9.,          10.
   6601,           2.,           8.,           0.
   6602,           2.,           8.,           1.
   6603,           2.,           8.,           2.
   6604,           2.,           8.,           3.
   6605,           2.,           8.,           4.
   6606,           2.,           8.,           5.
   6607,           2.,           8.,           6.
   6608,           2.,           8.,           7.
   6609,           2.,           8.,           8.
   6610,           2.,           8.,           9.
   6611,           2.,           8.,          10.
   6612,           2.,           7.,           0.
   6613,           2.,           7.,           1.
   6614,           2.,           7.,           2.
   6615,           2.,           7.,           3.
   6616,           2.,           7.,           4.
   6617,           2.,           7.,           5.
   6618,           2.,           7.,           6.
   6619,           2.,           7.,           7.
   6620,           2.,           7.,           8.
   6621,           2.,           7.,           9.
   6622,           2.,           7.,          10.
   6623,           2.,           6.,           0.
   6624,           2.,           6.,           1.
   6625,           2.,           6.,           2.
   6626,           2.,           6.,           3.
   6627,           2.,           6.,           4.
   6628,           2.,           6.,           5.
   6629,           2.,           6.,           6.
   6630,           2.,           6.,           7.
   6631,           2.,           6.,           8.
   6632,           2.,           6.,           9.
   6633,           2.,           6.,          10.
   6634,           2.,           5.,           0.
   6635,           2.,           5.,           1.
   6636,           2.,           5.,           2.
   6637,           2.,           5.,           3.
   6638,           2.,           5.,           4.
   6639,           2.,           5.,           5.
   6640,           2.,           5.,           6.
   6641,           2.,           5.,           7.
   6642,           2.,           5.,           8.
   6643,           2.,           5.,           9.
   6644,           2.,           5.,          10.
   6645,           2.,           4.,           0.
   6646,           2.,           4.,           1.
   6647,           2.,           4.,           2.
   6648,           2.,           4.,           3.
   6649,           2.,           4.,           4.
   6650,           2.,           4.,           5.
   6651,           2.,           4.,           6.
   6652,           2.,           4.,           7.
   6653,           2.,           4.,           8.
   6654,           2.,           4.,           9.
   6655,           2.,           4.,          10.
   6656,           2.,           3.,           0.
   6657,           2.,           3.,           1.
   6658,           2.,           3.,           2.
   6659,           2.,           3.,           3.
   6660,           2.,           3.,           4.
   6661,           2.,           3.,           5.
   6662,           2.,           3.,           6.
   6663,           2.,           3.,           7.
   6664,           2.,           3.,           8.
   6665,           2.,           3.,           9.
   6666,           2.,           3.,          10.
   6667,           2.,           2.,           0.
   6668,           2.,           2.,           1.
   6669,           2.,           2.,           2.
   6670,           2.,           2.,           3.
   6671,           2.,           2.,           4.
   6672,           2.,           2.,           5.
   6673,           2.,           2.,           6.
   6674,           2.,           2.,           7.
   6675,           2.,           2.,           8.
   6676,           2.,           2.,           9.
   6677,           2.,           2.,          10.
   6678,           2.,           1.,           0.
   6679,           2.,           1.,           1.
   6680,           2.,           1.,           2.
   6681,           2.,           1.,           3.
   6682,           2.,           1.,           4.
   6683,           2.,           1.,           5.
   6684,           2.,           1.,           6.
   6685,           2.,           1.,           7.
   6686,           2.,           1.,           8.
   6687,           2.,           1.,           9.
   6688,           2.,           1.,          10.
   6689,           2.,           0.,           0.
   6690,           2.,           0.,           1.
   6691,           2.,           0.,           2.
   6692,           2.,           0.,           3.
   6693,           2.,           0.,           4.
   6694,           2.,           0.,           5.
   6695,           2.,           0.,           6.
   6696,           2.,           0.,           7.
   6697,           2.,           0.,           8.
   6698,           2.,           0.,           9.
   6699,           2.,           0.,          10.
   6700,           1.,          20.,           0.
   6701,           1.,          20.,           1.
   6702,           1.,          20.,           2.
   6703,           1.,          20.,           3.
   6704,           1.,          20.,           4.
   6705,           1.,          20.,           5.
   6706,           1.,          20.,           6.
   6707,           1.,          20.,           7.
   6708,           1.,          20.,           8.
   6709,           1.,          20.,           9.
   6710,           1.,          20.,          10.
   6711,           1.,          19.,           0.
   6712,           1.,          19.,           1.
   6713,           1.,          19.,           2.
   6714,           1.,          19.,           3.
   6715,           1.,          19.,           4.
   6716,           1.,          19.,           5.
   6717,           1.,          19.,           6.
   6718,           1.,          19.,           7.
   6719,           1.,          19.,           8.
   6720,           1.,          19.,           9.
   6721,           1.,          19.,          10.
   6722,           1.,          18.,           0.
   6723,           1.,          18.,           1.
   6724,           1.,          18.,           2.
   6725,           1.,          18.,           3.
   6726,           1.,          18.,           4.
   6727,           1.,          18.,           5.
   6728,           1.,          18.,           6.
   6729,           1.,          18.,           7.
   6730,           1.,          18.,           8.
   6731,           1.,          18.,           9.
   6732,           1.,          18.,          10.
   6733,           1.,          17.,           0.
   6734,           1.,          17.,           1.
   6735,           1.,          17.,           2.
   6736,           1.,          17.,           3.
   6737,           1.,          17.,           4.
   6738,           1.,          17.,           5.
   6739,           1.,          17.,           6.
   6740,           1.,          17.,           7.
   6741,           1.,          17.,           8.
   6742,           1.,          17.,           9.
   6743,           1.,          17.,          10.
   6744,           1.,          16.,           0.
   6745,           1.,          16.,           1.
   6746,           1.,          16.,           2.
   6747,           1.,          16.,           3.
   6748,           1.,          16.,           4.
   6749,           1.,          16.,           5.
   6750,           1.,          16.,           6.
   6751,           1.,          16.,           7.
   6752,           1.,          16.,           8.
   6753,           1.,          16.,           9.
   6754,           1.,          16.,          10.
   6755,           1.,          15.,           0.
   6756,           1.,          15.,           1.
   6757,           1.,          15.,           2.
   6758,           1.,          15.,           3.
   6759,           1.,          15.,           4.
   6760,           1.,          15.,           5.
   6761,           1.,          15.,           6.
   6762,           1.,          15.,           7.
   6763,           1.,          15.,           8.
   6764,           1.,          15.,           9.
   6765,           1.,          15.,          10.
   6766,           1.,          14.,           0.
   6767,           1.,          14.,           1.
   6768,           1.,          14.,           2.
   6769,           1.,          14.,           3.
   6770,           1.,          14.,           4.
   6771,           1.,          14.,           5.
   6772,           1.,          14.,           6.
   6773,           1.,          14.,           7.
   6774,           1.,          14.,           8.
   6775,           1.,          14.,           9.
   6776,           1.,          14.,          10.
   6777,           1.,          13.,           0.
   6778,           1.,          13.,           1.
   6779,           1.,          13.,           2.
   6780,           1.,          13.,           3.
   6781,           1.,          13.,           4.
   6782,           1.,          13.,           5.
   6783,           1.,          13.,           6.
   6784,           1.,          13.,           7.
   6785,           1.,          13.,           8.
   6786,           1.,          13.,           9.
   6787,           1.,          13.,          10.
   6788,           1.,          12.,           0.
   6789,           1.,          12.,           1.
   6790,           1.,          12.,           2.
   6791,           1.,          12.,           3.
   6792,           1.,          12.,           4.
   6793,           1.,          12.,           5.
   6794,           1.,          12.,           6.
   6795,           1.,          12.,           7.
   6796,           1.,          12.,           8.
   6797,           1.,          12.,           9.
   6798,           1.,          12.,          10.
   6799,           1.,          11.,           0.
   6800,           1.,          11.,           1.
   6801,           1.,          11.,           2.
   6802,           1.,          11.,           3.
   6803,           1.,          11.,           4.
   6804,           1.,          11.,           5.
   6805,           1.,          11.,           6.
   6806,           1.,          11.,           7.
   6807,           1.,          11.,           8.
   6808,           1.,          11.,           9.
   6809,           1.,          11.,          10.
   6810,           1.,          10.,           0.
   6811,           1.,          10.,           1.
   6812,           1.,          10.,           2.
   6813,           1.,          10.,           3.
   6814,           1.,          10.,           4.
   6815,           1.,          10.,           5.
   6816,           1.,          10.,           6.
   6817,           1.,          10.,           7.
   6818,           1.,          10.,           8.
   6819,           1.,          10.,           9.
   6820,           1.,          10.,          10.
   6821,           1.,           9.,           0.
   6822,           1.,           9.,           1.
   6823,           1.,           9.,           2.
   6824,           1.,           9.,           3.
   6825,           1.,           9.,           4.
   6826,           1.,           9.,           5.
   6827,           1.,           9.,           6.
   6828,           1.,           9.,           7.
   6829,           1.,           9.,           8.
   6830,           1.,           9.,           9.
   6831,           1.,           9.,          10.
   6832,           1.,           8.,           0.
   6833,           1.,           8.,           1.
   6834,           1.,           8.,           2.
   6835,           1.,           8.,           3.
   6836,           1.,           8.,           4.
   6837,           1.,           8.,           5.
   6838,           1.,           8.,           6.
   6839,           1.,           8.,           7.
   6840,           1.,           8.,           8.
   6841,           1.,           8.,           9.
   6842,           1.,           8.,          10.
   6843,           1.,           7.,           0.
   6844,           1.,           7.,           1.
   6845,           1.,           7.,           2.
   6846,           1.,           7.,           3.
   6847,           1.,           7.,           4.
   6848,           1.,           7.,           5.
   6849,           1.,           7.,           6.
   6850,           1.,           7.,           7.
   6851,           1.,           7.,           8.
   6852,           1.,           7.,           9.
   6853,           1.,           7.,          10.
   6854,           1.,           6.,           0.
   6855,           1.,           6.,           1.
   6856,           1.,           6.,           2.
   6857,           1.,           6.,           3.
   6858,           1.,           6.,           4.
   6859,           1.,           6.,           5.
   6860,           1.,           6.,           6.
   6861,           1.,           6.,           7.
   6862,           1.,           6.,           8.
   6863,           1.,           6.,           9.
   6864,           1.,           6.,          10.
   6865,           1.,           5.,           0.
   6866,           1.,           5.,           1.
   6867,           1.,           5.,           2.
   6868,           1.,           5.,           3.
   6869,           1.,           5.,           4.
   6870,           1.,           5.,           5.
   6871,           1.,           5.,           6.
   6872,           1.,           5.,           7.
   6873,           1.,           5.,           8.
   6874,           1.,           5.,           9.
   6875,           1.,           5.,          10.
   6876,           1.,           4.,           0.
   6877,           1.,           4.,           1.
   6878,           1.,           4.,           2.
   6879,           1.,           4.,           3.
   6880,           1.,           4.,           4.
   6881,           1.,           4.,           5.
   6882,           1.,           4.,           6.
   6883,           1.,           4.,           7.
   6884,           1.,           4.,           8.
   6885,           1.,           4.,           9.
   6886,           1.,           4.,          10.
   6887,           1.,           3.,           0.
   6888,           1.,           3.,           1.
   6889,           1.,           3.,           2.
   6890,           1.,           3.,           3.
   6891,           1.,           3.,           4.
   6892,           1.,           3.,           5.
   6893,           1.,           3.,           6.
   6894,           1.,           3.,           7.
   6895,           1.,           3.,           8.
   6896,           1.,           3.,           9.
   6897,           1.,           3.,          10.
   6898,           1.,           2.,           0.
   6899,           1.,           2.,           1.
   6900,           1.,           2.,           2.
   6901,           1.,           2.,           3.
   6902,           1.,           2.,           4.
   6903,           1.,           2.,           5.
   6904,           1.,           2.,           6.
   6905,           1.,           2.,           7.
   6906,           1.,           2.,           8.
   6907,           1.,           2.,           9.
   6908,           1.,           2.,          10.
   6909,           1.,           1.,           0.
   6910,           1.,           1.,           1.
   6911,           1.,           1.,           2.
   6912,           1.,           1.,           3.
   6913,           1.,           1.,           4.
   6914,           1.,           1.,           5.
   6915,           1.,           1.,           6.
   6916,           1.,           1.,           7.
   6917,           1.,           1.,           8.
   6918,           1.,           1.,           9.
   6919,           1.,           1.,          10.
   6920,           1.,           0.,           0.
   6921,           1.,           0.,           1.
   6922,           1.,           0.,           2.
   6923,           1.,           0.,           3.
   6924,           1.,           0.,           4.
   6925,           1.,           0.,           5.
   6926,           1.,           0.,           6.
   6927,           1.,           0.,           7.
   6928,           1.,           0.,           8.
   6929,           1.,           0.,           9.
   6930,           1.,           0.,          10.
   6931,           0.,          20.,           0.
   6932,           0.,          20.,           1.
   6933,           0.,          20.,           2.
   6934,           0.,          20.,           3.
   6935,           0.,          20.,           4.
   6936,           0.,          20.,           5.
   6937,           0.,          20.,           6.
   6938,           0.,          20.,           7.
   6939,           0.,          20.,           8.
   6940,           0.,          20.,           9.
   6941,           0.,          20.,          10.
   6942,           0.,          19.,           0.
   6943,           0.,          19.,           1.
   6944,           0.,          19.,           2.
   6945,           0.,          19.,           3.
   6946,           0.,          19.,           4.
   6947,           0.,          19.,           5.
   6948,           0.,          19.,           6.
   6949,           0.,          19.,           7.
   6950,           0.,          19.,           8.
   6951,           0.,          19.,           9.
   6952,           0.,          19.,          10.
   6953,           0.,          18.,           0.
   6954,           0.,          18.,           1.
   6955,           0.,          18.,           2.
   6956,           0.,          18.,           3.
   6957,           0.,          18.,           4.
   6958,           0.,          18.,           5.
   6959,           0.,          18.,           6.
   6960,           0.,          18.,           7.
   6961,           0.,          18.,           8.
   6962,           0.,          18.,           9.
   6963,           0.,          18.,          10.
   6964,           0.,          17.,           0.
   6965,           0.,          17.,           1.
   6966,           0.,          17.,           2.
   6967,           0.,          17.,           3.
   6968,           0.,          17.,           4.
   6969,           0.,          17.,           5.
   6970,           0.,          17.,           6.
   6971,           0.,          17.,           7.
   6972,           0.,          17.,           8.
   6973,           0.,          17.,           9.
   6974,           0.,          17.,          10.
   6975,           0.,          16.,           0.
   6976,           0.,          16.,           1.
   6977,           0.,          16.,           2.
   6978,           0.,          16.,           3.
   6979,           0.,          16.,           4.
   6980,           0.,          16.,           5.
   6981,           0.,          16.,           6.
   6982,           0.,          16.,           7.
   6983,           0.,          16.,           8.
   6984,           0.,          16.,           9.
   6985,           0.,          16.,          10.
   6986,           0.,          15.,           0.
   6987,           0.,          15.,           1.
   6988,           0.,          15.,           2.
   6989,           0.,          15.,           3.
   6990,           0.,          15.,           4.
   6991,           0.,          15.,           5.
   6992,           0.,          15.,           6.
   6993,           0.,          15.,           7.
   6994,           0.,          15.,           8.
   6995,           0.,          15.,           9.
   6996,           0.,          15.,          10.
   6997,           0.,          14.,           0.
   6998,           0.,          14.,           1.
   6999,           0.,          14.,           2.
   7000,           0.,          14.,           3.
   7001,           0.,          14.,           4.
   7002,           0.,          14.,           5.
   7003,           0.,          14.,           6.
   7004,           0.,          14.,           7.
   7005,           0.,          14.,           8.
   7006,           0.,          14.,           9.
   7007,           0.,          14.,          10.
   7008,           0.,          13.,           0.
   7009,           0.,          13.,           1.
   7010,           0.,          13.,           2.
   7011,           0.,          13.,           3.
   7012,           0.,          13.,           4.
   7013,           0.,          13.,           5.
   7014,           0.,          13.,           6.
   7015,           0.,          13.,           7.
   7016,           0.,          13.,           8.
   7017,           0.,          13.,           9.
   7018,           0.,          13.,          10.
   7019,           0.,          12.,           0.
   7020,           0.,          12.,           1.
   7021,           0.,          12.,           2.
   7022,           0.,          12.,           3.
   7023,           0.,          12.,           4.
   7024,           0.,          12.,           5.
   7025,           0.,          12.,           6.
   7026,           0.,          12.,           7.
   7027,           0.,          12.,           8.
   7028,           0.,          12.,           9.
   7029,           0.,          12.,          10.
   7030,           0.,          11.,           0.
   7031,           0.,          11.,           1.
   7032,           0.,          11.,           2.
   7033,           0.,          11.,           3.
   7034,           0.,          11.,           4.
   7035,           0.,          11.,           5.
   7036,           0.,          11.,           6.
   7037,           0.,          11.,           7.
   7038,           0.,          11.,           8.
   7039,           0.,          11.,           9.
   7040,           0.,          11.,          10.
   7041,           0.,          10.,           0.
   7042,           0.,          10.,           1.
   7043,           0.,          10.,           2.
   7044,           0.,          10.,           3.
   7045,           0.,          10.,           4.
   7046,           0.,          10.,           5.
   7047,           0.,          10.,           6.
   7048,           0.,          10.,           7.
   7049,           0.,          10.,           8.
   7050,           0.,          10.,           9.
   7051,           0.,          10.,          10.
   7052,           0.,           9.,           0.
   7053,           0.,           9.,           1.
   7054,           0.,           9.,           2.
   7055,           0.,           9.,           3.
   7056,           0.,           9.,           4.
   7057,           0.,           9.,           5.
   7058,           0.,           9.,           6.
   7059,           0.,           9.,           7.
   7060,           0.,           9.,           8.
   7061,           0.,           9.,           9.
   7062,           0.,           9.,          10.
   7063,           0.,           8.,           0.
   7064,           0.,           8.,           1.
   7065,           0.,           8.,           2.
   7066,           0.,           8.,           3.
   7067,           0.,           8.,           4.
   7068,           0.,           8.,           5.
   7069,           0.,           8.,           6.
   7070,           0.,           8.,           7.
   7071,           0.,           8.,           8.
   7072,           0.,           8.,           9.
   7073,           0.,           8.,          10.
   7074,           0.,           7.,           0.
   7075,           0.,           7.,           1.
   7076,           0.,           7.,           2.
   7077,           0.,           7.,           3.
   7078,           0.,           7.,           4.
   7079,           0.,           7.,           5.
   7080,           0.,           7.,           6.
   7081,           0.,           7.,           7.
   7082,           0.,           7.,           8.
   7083,           0.,           7.,           9.
   7084,           0.,           7.,          10.
   7085,           0.,           6.,           0.
   7086,           0.,           6.,           1.
   7087,           0.,           6.,           2.
   7088,           0.,           6.,           3.
   7089,           0.,           6.,           4.
   7090,           0.,           6.,           5.
   7091,           0.,           6.,           6.
   7092,           0.,           6.,           7.
   7093,           0.,           6.,           8.
   7094,           0.,           6.,           9.
   7095,           0.,           6.,          10.
   7096,           0.,           5.,           0.
   7097,           0.,           5.,           1.
   7098,           0.,           5.,           2.
   7099,           0.,           5.,           3.
   7100,           0.,           5.,           4.
   7101,           0.,           5.,           5.
   7102,           0.,           5.,           6.
   7103,           0.,           5.,           7.
   7104,           0.,           5.,           8.
   7105,           0.,           5.,           9.
   7106,           0.,           5.,          10.
   7107,           0.,           4.,           0.
   7108,           0.,           4.,           1.
   7109,           0.,           4.,           2.
   7110,           0.,           4.,           3.
   7111,           0.,           4.,           4.
   7112,           0.,           4.,           5.
   7113,           0.,           4.,           6.
   7114,           0.,           4.,           7.
   7115,           0.,           4.,           8.
   7116,           0.,           4.,           9.
   7117,           0.,           4.,          10.
   7118,           0.,           3.,           0.
   7119,           0.,           3.,           1.
   7120,           0.,           3.,           2.
   7121,           0.,           3.,           3.
   7122,           0.,           3.,           4.
   7123,           0.,           3.,           5.
   7124,           0.,           3.,           6.
   7125,           0.,           3.,           7.
   7126,           0.,           3.,           8.
   7127,           0.,           3.,           9.
   7128,           0.,           3.,          10.
   7129,           0.,           2.,           0.
   7130,           0.,           2.,           1.
   7131,           0.,           2.,           2.
   7132,           0.,           2.,           3.
   7133,           0.,           2.,           4.
   7134,           0.,           2.,           5.
   7135,           0.,           2.,           6.
   7136,           0.,           2.,           7.
   7137,           0.,           2.,           8.
   7138,           0.,           2.,           9.
   7139,           0.,           2.,          10.
   7140,           0.,           1.,           0.
   7141,           0.,           1.,           1.
   7142,           0.,           1.,           2.
   7143,           0.,           1.,           3.
   7144,           0.,           1.,           4.
   7145,           0.,           1.,           5.
   7146,           0.,           1.,           6.
   7147,           0.,           1.,           7.
   7148,           0.,           1.,           8.
   7149,           0.,           1.,           9.
   7150,           0.,           1.,          10.
   7151,           0.,           0.,           0.
   7152,           0.,           0.,           1.
   7153,           0.,           0.,           2.
   7154,           0.,           0.,           3.
   7155,           0.,           0.,           4.
   7156,           0.,           0.,           5.
   7157,           0.,           0.,           6.
   7158,           0.,           0.,           7.
   7159,           0.,           0.,           8.
   7160,           0.,           0.,           9.
   7161,           0.,           0.,          10.
*Element, type=C3D8R
   1,  232,  233,  244,  243,    1,    2,   13,   12
   2,  233,  234,  245,  244,    2,    3,   14,   13
   3,  234,  235,  246,  245,    3,    4,   15,   14
   4,  235,  236,  247,  246,    4,    5,   16,   15
   5,  236,  237,  248,  247,    5,    6,   17,   16
   6,  237,  238,  249,  248,    6,    7,   18,   17
   7,  238,  239,  250,  249,    7,    8,   19,   18
   8,  239,  240,  251,  250,    8,    9,   20,   19
   9,  240,  241,  252,  251,    9,   10,   21,   20
  10,  241,  242,  253,  252,   10,   11,   22,   21
  11,  243,  244,  255,  254,   12,   13,   24,   23
  12,  244,  245,  256,  255,   13,   14,   25,   24
  13,  245,  246,  257,  256,   14,   15,   26,   25
  14,  246,  247,  258,  257,   15,   16,   27,   26
  15,  247,  248,  259,  258,   16,   17,   28,   27
  16,  248,  249,  260,  259,   17,   18,   29,   28
  17,  249,  250,  261,  260,   18,   19,   30,   29
  18,  250,  251,  262,  261,   19,   20,   31,   30
  19,  251,  252,  263,  262,   20,   21,   32,   31
  20,  252,  253,  264,  263,   21,   22,   33,   32
  21,  254,  255,  266,  265,   23,   24,   35,   34
  22,  255,  256,  267,  266,   24,   25,   36,   35
  23,  256,  257,  268,  267,   25,   26,   37,   36
  24,  257,  258,  269,  268,   26,   27,   38,   37
  25,  258,  259,  270,  269,   27,   28,   39,   38
  26,  259,  260,  271,  270,   28,   29,   40,   39
  27,  260,  261,  272,  271,   29,   30,   41,   40
  28,  261,  262,  273,  272,   30,   31,   42,   41
  29,  262,  263,  274,  273,   31,   32,   43,   42
  30,  263,  264,  275,  274,   32,   33,   44,   43
  31,  265,  266,  277,  276,   34,   35,   46,   45
  32,  266,  267,  278,  277,   35,   36,   47,   46
  33,  267,  268,  279,  278,   36,   37,   48,   47
  34,  268,  269,  280,  279,   37,   38,   49,   48
  35,  269,  270,  281,  280,   38,   39,   50,   49
  36,  270,  271,  282,  281,   39,   40,   51,   50
  37,  271,  272,  283,  282,   40,   41,   52,   51
  38,  272,  273,  284,  283,   41,   42,   53,   52
  39,  273,  274,  285,  284,   42,   43,   54,   53
  40,  274,  275,  286,  285,   43,   44,   55,   54
  41,  276,  277,  288,  287,   45,   46,   57,   56
  42,  277,  278,  289,  288,   46,   47,   58,   57
  43,  278,  279,  290,  289,   47,   48,   59,   58
  44,  279,  280,  291,  290,   48,   49,   60,   59
  45,  280,  281,  292,  291,   49,   50,   61,   60
  46,  281,  282,  293,  292,   50,   51,   62,   61
  47,  282,  283,  294,  293,   51,   52,   63,   62
  48,  283,  284,  295,  294,   52,   53,   64,   63
  49,  284,  285,  296,  295,   53,   54,   65,   64
  50,  285,  286,  297,  296,   54,   55,   66,   65
  51,  287,  288,  299,  298,   56,   57,   68,   67
  52,  288,  289,  300,  299,   57,   58,   69,   68
  53,  289,  290,  301,  300,   58,   59,   70,   69
  54,  290,  291,  302,  301,   59,   60,   71,   70
  55,  291,  292,  303,  302,   60,   61,   72,   71
  56,  292,  293,  304,  303,   61,   62,   73,   72
  57,  293,  294,  305,  304,   62,   63,   74,   73
  58,  294,  295,  306,  305,   63,   64,   75,   74
  59,  295,  296,  307,  306,   64,   65,   76,   75
  60,  296,  297,  308,  307,   65,   66,   77,   76
  61,  298,  299,  310,  309,   67,   68,   79,   78
  62,  299,  300,  311,  310,   68,   69,   80,   79
  63,  300,  301,  312,  311,   69,   70,   81,   80
  64,  301,  302,  313,  312,   70,   71,   82,   81
  65,  302,  303,  314,  313,   71,   72,   83,   82
  66,  303,  304,  315,  314,   72,   73,   84,   83
  67,  304,  305,  316,  315,   73,   74,   85,   84
  68,  305,  306,  317,  316,   74,   75,   86,   85
  69,  306,  307,  318,  317,   75,   76,   87,   86
  70,  307,  308,  319,  318,   76,   77,   88,   87
  71,  309,  310,  321,  320,   78,   79,   90,   89
  72,  310,  311,  322,  321,   79,   80,   91,   90
  73,  311,  312,  323,  322,   80,   81,   92,   91
  74,  312,  313,  324,  323,   81,   82,   93,   92
  75,  313,  314,  325,  324,   82,   83,   94,   93
  76,  314,  315,  326,  325,   83,   84,   95,   94
  77,  315,  316,  327,  326,   84,   85,   96,   95
  78,  316,  317,  328,  327,   85,   86,   97,   96
  79,  317,  318,  329,  328,   86,   87,   98,   97
  80,  318,  319,  330,  329,   87,   88,   99,   98
  81,  320,  321,  332,  331,   89,   90,  101,  100
  82,  321,  322,  333,  332,   90,   91,  102,  101
  83,  322,  323,  334,  333,   91,   92,  103,  102
  84,  323,  324,  335,  334,   92,   93,  104,  103
  85,  324,  325,  336,  335,   93,   94,  105,  104
  86,  325,  326,  337,  336,   94,   95,  106,  105
  87,  326,  327,  338,  337,   95,   96,  107,  106
  88,  327,  328,  339,  338,   96,   97,  108,  107
  89,  328,  329,  340,  339,   97,   98,  109,  108
  90,  329,  330,  341,  340,   98,   99,  110,  109
  91,  331,  332,  343,  342,  100,  101,  112,  111
  92,  332,  333,  344,  343,  101,  102,  113,  112
  93,  333,  334,  345,  344,  102,  103,  114,  113
  94,  334,  335,  346,  345,  103,  104,  115,  114
  95,  335,  336,  347,  346,  104,  105,  116,  115
  96,  336,  337,  348,  347,  105,  106,  117,  116
  97,  337,  338,  349,  348,  106,  107,  118,  117
  98,  338,  339,  350,  349,  107,  108,  119,  118
  99,  339,  340,  351,  350,  108,  109,  120,  119
 100,  340,  341,  352,  351,  109,  110,  121,  120
 101,  342,  343,  354,  353,  111,  112,  123,  122
 102,  343,  344,  355,  354,  112,  113,  124,  123
 103,  344,  345,  356,  355,  113,  114,  125,  124
 104,  345,  346,  357,  356,  114,  115,  126,  125
 105,  346,  347,  358,  357,  115,  116,  127,  126
 106,  347,  348,  359,  358,  116,  117,  128,  127
 107,  348,  349,  360,  359,  117,  118,  129,  128
 108,  349,  350,  361,  360,  118,  119,  130,  129
 109,  350,  351,  362,  361,  119,  120,  131,  130
 110,  351,  352,  363,  362,  120,  121,  132,  131
 111,  353,  354,  365,  364,  122,  123,  134,  133
 112,  354,  355,  366,  365,  123,  124,  135,  134
 113,  355,  356,  367,  366,  124,  125,  136,  135
 114,  356,  357,  368,  367,  125,  126,  137,  136
 115,  357,  358,  369,  368,  126,  127,  138,  137
 116,  358,  359,  370,  369,  127,  128,  139,  138
 117,  359,  360,  371,  370,  128,  129,  140,  139
 118,  360,  361,  372,  371,  129,  130,  141,  140
 119,  361,  362,  373,  372,  130,  131,  142,  141
 120,  362,  363,  374,  373,  131,  132,  143,  142
 121,  364,  365,  376,  375,  133,  134,  145,  144
 122,  365,  366,  377,  376,  134,  135,  146,  145
 123,  366,  367,  378,  377,  135,  136,  147,  146
 124,  367,  368,  379,  378,  136,  137,  148,  147
 125,  368,  369,  380,  379,  137,  138,  149,  148
 126,  369,  370,  381,  380,  138,  139,  150,  149
 127,  370,  371,  382,  381,  139,  140,  151,  150
 128,  371,  372,  383,  382,  140,  141,  152,  151
 129,  372,  373,  384,  383,  141,  142,  153,  152
 130,  373,  374,  385,  384,  142,  143,  154,  153
 131,  375,  376,  387,  386,  144,  145,  156,  155
 132,  376,  377,  388,  387,  145,  146,  157,  156
 133,  377,  378,  389,  388,  146,  147,  158,  157
 134,  378,  379,  390,  389,  147,  148,  159,  158
 135,  379,  380,  391,  390,  148,  149,  160,  159
 136,  380,  381,  392,  391,  149,  150,  161,  160
 137,  381,  382,  393,  392,  150,  151,  162,  161
 138,  382,  383,  394,  393,  151,  152,  163,  162
 139,  383,  384,  395,  394,  152,  153,  164,  163
 140,  384,  385,  396,  395,  153,  154,  165,  164
 141,  386,  387,  398,  397,  155,  156,  167,  166
 142,  387,  388,  399,  398,  156,  157,  168,  167
 143,  388,  389,  400,  399,  157,  158,  169,  168
 144,  389,  390,  401,  400,  158,  159,  170,  169
 145,  390,  391,  402,  401,  159,  160,  171,  170
 146,  391,  392,  403,  402,  160,  161,  172,  171
 147,  392,  393,  404,  403,  161,  162,  173,  172
 148,  393,  394,  405,  404,  162,  163,  174,  173
 149,  394,  395,  406,  405,  163,  164,  175,  174
 150,  395,  396,  407,  406,  164,  165,  176,  175
 151,  397,  398,  409,  408,  166,  167,  178,  177
 152,  398,  399,  410,  409,  167,  168,  179,  178
 153,  399,  400,  411,  410,  168,  169,  180,  179
 154,  400,  401,  412,  411,  169,  170,  181,  180
 155,  401,  402,  413,  412,  170,  171,  182,  181
 156,  402,  403,  414,  413,  171,  172,  183,  182
 157,  403,  404,  415,  414,  172,  173,  184,  183
 158,  404,  405,  416,  415,  173,  174,  185,  184
 159,  405,  406,  417,  416,  174,  175,  186,  185
 160,  406,  407,  418,  417,  175,  176,  187,  186
 161,  408,  409,  420,  419,  177,  178,  189,  188
 162,  409,  410,  421,  420,  178,  179,  190,  189
 163,  410,  411,  422,  421,  179,  180,  191,  190
 164,  411,  412,  423,  422,  180,  181,  192,  191
 165,  412,  413,  424,  423,  181,  182,  193,  192
 166,  413,  414,  425,  424,  182,  183,  194,  193
 167,  414,  415,  426,  425,  183,  184,  195,  194
 168,  415,  416,  427,  426,  184,  185,  196,  195
 169,  416,  417,  428,  427,  185,  186,  197,  196
 170,  417,  418,  429,  428,  186,  187,  198,  197
 171,  419,  420,  431,  430,  188,  189,  200,  199
 172,  420,  421,  432,  431,  189,  190,  201,  200
 173,  421,  422,  433,  432,  190,  191,  202,  201
 174,  422,  423,  434,  433,  191,  192,  203,  202
 175,  423,  424,  435,  434,  192,  193,  204,  203
 176,  424,  425,  436,  435,  193,  194,  205,  204
 177,  425,  426,  437,  436,  194,  195,  206,  205
 178,  426,  427,  438,  437,  195,  196,  207,  206
 179,  427,  428,  439,  438,  196,  197,  208,  207
 180,  428,  429,  440,  439,  197,  198,  209,  208
 181,  430,  431,  442,  441,  199,  200,  211,  210
 182,  431,  432,  443,  442,  200,  201,  212,  211
 183,  432,  433,  444,  443,  201,  202,  213,  212
 184,  433,  434,  445,  444,  202,  203,  214,  213
 185,  434,  435,  446,  445,  203,  204,  215,  214
 186,  435,  436,  447,  446,  204,  205,  216,  215
 187,  436,  437,  448,  447,  205,  206,  217,  216
 188,  437,  438,  449,  448,  206,  207,  218,  217
 189,  438,  439,  450,  449,  207,  208,  219,  218
 190,  439,  440,  451,  450,  208,  209,  220,  219
 191,  441,  442,  453,  452,  210,  211,  222,  221
 192,  442,  443,  454,  453,  211,  212,  223,  222
 193,  443,  444,  455,  454,  212,  213,  224,  223
 194,  444,  445,  456,  455,  213,  214,  225,  224
 195,  445,  446,  457,  456,  214,  215,  226,  225
 196,  446,  447,  458,  457,  215,  216,  227,  226
 197,  447,  448,  459,  458,  216,  217,  228,  227
 198,  448,  449,  460,  459,  217,  218,  229,  228
 199,  449,  450,  461,  460,  218,  219,  230,  229
 200,  450,  451,  462,  461,  219,  220,  231,  230
 201,  463,  464,  475,  474,  232,  233,  244,  243
 202,  464,  465,  476,  475,  233,  234,  245,  244
 203,  465,  466,  477,  476,  234,  235,  246,  245
 204,  466,  467,  478,  477,  235,  236,  247,  246
 205,  467,  468,  479,  478,  236,  237,  248,  247
 206,  468,  469,  480,  479,  237,  238,  249,  248
 207,  469,  470,  481,  480,  238,  239,  250,  249
 208,  470,  471,  482,  481,  239,  240,  251,  250
 209,  471,  472,  483,  482,  240,  241,  252,  251
 210,  472,  473,  484,  483,  241,  242,  253,  252
 211,  474,  475,  486,  485,  243,  244,  255,  254
 212,  475,  476,  487,  486,  244,  245,  256,  255
 213,  476,  477,  488,  487,  245,  246,  257,  256
 214,  477,  478,  489,  488,  246,  247,  258,  257
 215,  478,  479,  490,  489,  247,  248,  259,  258
 216,  479,  480,  491,  490,  248,  249,  260,  259
 217,  480,  481,  492,  491,  249,  250,  261,  260
 218,  481,  482,  493,  492,  250,  251,  262,  261
 219,  482,  483,  494,  493,  251,  252,  263,  262
 220,  483,  484,  495,  494,  252,  253,  264,  263
 221,  485,  486,  497,  496,  254,  255,  266,  265
 222,  486,  487,  498,  497,  255,  256,  267,  266
 223,  487,  488,  499,  498,  256,  257,  268,  267
 224,  488,  489,  500,  499,  257,  258,  269,  268
 225,  489,  490,  501,  500,  258,  259,  270,  269
 226,  490,  491,  502,  501,  259,  260,  271,  270
 227,  491,  492,  503,  502,  260,  261,  272,  271
 228,  492,  493,  504,  503,  261,  262,  273,  272
 229,  493,  494,  505,  504,  262,  263,  274,  273
 230,  494,  495,  506,  505,  263,  264,  275,  274
 231,  496,  497,  508,  507,  265,  266,  277,  276
 232,  497,  498,  509,  508,  266,  267,  278,  277
 233,  498,  499,  510,  509,  267,  268,  279,  278
 234,  499,  500,  511,  510,  268,  269,  280,  279
 235,  500,  501,  512,  511,  269,  270,  281,  280
 236,  501,  502,  513,  512,  270,  271,  282,  281
 237,  502,  503,  514,  513,  271,  272,  283,  282
 238,  503,  504,  515,  514,  272,  273,  284,  283
 239,  504,  505,  516,  515,  273,  274,  285,  284
 240,  505,  506,  517,  516,  274,  275,  286,  285
 241,  507,  508,  519,  518,  276,  277,  288,  287
 242,  508,  509,  520,  519,  277,  278,  289,  288
 243,  509,  510,  521,  520,  278,  279,  290,  289
 244,  510,  511,  522,  521,  279,  280,  291,  290
 245,  511,  512,  523,  522,  280,  281,  292,  291
 246,  512,  513,  524,  523,  281,  282,  293,  292
 247,  513,  514,  525,  524,  282,  283,  294,  293
 248,  514,  515,  526,  525,  283,  284,  295,  294
 249,  515,  516,  527,  526,  284,  285,  296,  295
 250,  516,  517,  528,  527,  285,  286,  297,  296
 251,  518,  519,  530,  529,  287,  288,  299,  298
 252,  519,  520,  531,  530,  288,  289,  300,  299
 253,  520,  521,  532,  531,  289,  290,  301,  300
 254,  521,  522,  533,  532,  290,  291,  302,  301
 255,  522,  523,  534,  533,  291,  292,  303,  302
 256,  523,  524,  535,  534,  292,  293,  304,  303
 257,  524,  525,  536,  535,  293,  294,  305,  304
 258,  525,  526,  537,  536,  294,  295,  306,  305
 259,  526,  527,  538,  537,  295,  296,  307,  306
 260,  527,  528,  539,  538,  296,  297,  308,  307
 261,  529,  530,  541,  540,  298,  299,  310,  309
 262,  530,  531,  542,  541,  299,  300,  311,  310
 263,  531,  532,  543,  542,  300,  301,  312,  311
 264,  532,  533,  544,  543,  301,  302,  313,  312
 265,  533,  534,  545,  544,  302,  303,  314,  313
 266,  534,  535,  546,  545,  303,  304,  315,  314
 267,  535,  536,  547,  546,  304,  305,  316,  315
 268,  536,  537,  548,  547,  305,  306,  317,  316
 269,  537,  538,  549,  548,  306,  307,  318,  317
 270,  538,  539,  550,  549,  307,  308,  319,  318
 271,  540,  541,  552,  551,  309,  310,  321,  320
 272,  541,  542,  553,  552,  310,  311,  322,  321
 273,  542,  543,  554,  553,  311,  312,  323,  322
 274,  543,  544,  555,  554,  312,  313,  324,  323
 275,  544,  545,  556,  555,  313,  314,  325,  324
 276,  545,  546,  557,  556,  314,  315,  326,  325
 277,  546,  547,  558,  557,  315,  316,  327,  326
 278,  547,  548,  559,  558,  316,  317,  328,  327
 279,  548,  549,  560,  559,  317,  318,  329,  328
 280,  549,  550,  561,  560,  318,  319,  330,  329
 281,  551,  552,  563,  562,  320,  321,  332,  331
 282,  552,  553,  564,  563,  321,  322,  333,  332
 283,  553,  554,  565,  564,  322,  323,  334,  333
 284,  554,  555,  566,  565,  323,  324,  335,  334
 285,  555,  556,  567,  566,  324,  325,  336,  335
 286,  556,  557,  568,  567,  325,  326,  337,  336
 287,  557,  558,  569,  568,  326,  327,  338,  337
 288,  558,  559,  570,  569,  327,  328,  339,  338
 289,  559,  560,  571,  570,  328,  329,  340,  339
 290,  560,  561,  572,  571,  329,  330,  341,  340
 291,  562,  563,  574,  573,  331,  332,  343,  342
 292,  563,  564,  575,  574,  332,  333,  344,  343
 293,  564,  565,  576,  575,  333,  334,  345,  344
 294,  565,  566,  577,  576,  334,  335,  346,  345
 295,  566,  567,  578,  577,  335,  336,  347,  346
 296,  567,  568,  579,  578,  336,  337,  348,  347
 297,  568,  569,  580,  579,  337,  338,  349,  348
 298,  569,  570,  581,  580,  338,  339,  350,  349
 299,  570,  571,  582,  581,  339,  340,  351,  350
 300,  571,  572,  583,  582,  340,  341,  352,  351
 301,  573,  574,  585,  584,  342,  343,  354,  353
 302,  574,  575,  586,  585,  343,  344,  355,  354
 303,  575,  576,  587,  586,  344,  345,  356,  355
 304,  576,  577,  588,  587,  345,  346,  357,  356
 305,  577,  578,  589,  588,  346,  347,  358,  357
 306,  578,  579,  590,  589,  347,  348,  359,  358
 307,  579,  580,  591,  590,  348,  349,  360,  359
 308,  580,  581,  592,  591,  349,  350,  361,  360
 309,  581,  582,  593,  592,  350,  351,  362,  361
 310,  582,  583,  594,  593,  351,  352,  363,  362
 311,  584,  585,  596,  595,  353,  354,  365,  364
 312,  585,  586,  597,  596,  354,  355,  366,  365
 313,  586,  587,  598,  597,  355,  356,  367,  366
 314,  587,  588,  599,  598,  356,  357,  368,  367
 315,  588,  589,  600,  599,  357,  358,  369,  368
 316,  589,  590,  601,  600,  358,  359,  370,  369
 317,  590,  591,  602,  601,  359,  360,  371,  370
 318,  591,  592,  603,  602,  360,  361,  372,  371
 319,  592,  593,  604,  603,  361,  362,  373,  372
 320,  593,  594,  605,  604,  362,  363,  374,  373
 321,  595,  596,  607,  606,  364,  365,  376,  375
 322,  596,  597,  608,  607,  365,  366,  377,  376
 323,  597,  598,  609,  608,  366,  367,  378,  377
 324,  598,  599,  610,  609,  367,  368,  379,  378
 325,  599,  600,  611,  610,  368,  369,  380,  379
 326,  600,  601,  612,  611,  369,  370,  381,  380
 327,  601,  602,  613,  612,  370,  371,  382,  381
 328,  602,  603,  614,  613,  371,  372,  383,  382
 329,  603,  604,  615,  614,  372,  373,  384,  383
 330,  604,  605,  616,  615,  373,  374,  385,  384
 331,  606,  607,  618,  617,  375,  376,  387,  386
 332,  607,  608,  619,  618,  376,  377,  388,  387
 333,  608,  609,  620,  619,  377,  378,  389,  388
 334,  609,  610,  621,  620,  378,  379,  390,  389
 335,  610,  611,  622,  621,  379,  380,  391,  390
 336,  611,  612,  623,  622,  380,  381,  392,  391
 337,  612,  613,  624,  623,  381,  382,  393,  392
 338,  613,  614,  625,  624,  382,  383,  394,  393
 339,  614,  615,  626,  625,  383,  384,  395,  394
 340,  615,  616,  627,  626,  384,  385,  396,  395
 341,  617,  618,  629,  628,  386,  387,  398,  397
 342,  618,  619,  630,  629,  387,  388,  399,  398
 343,  619,  620,  631,  630,  388,  389,  400,  399
 344,  620,  621,  632,  631,  389,  390,  401,  400
 345,  621,  622,  633,  632,  390,  391,  402,  401
 346,  622,  623,  634,  633,  391,  392,  403,  402
 347,  623,  624,  635,  634,  392,  393,  404,  403
 348,  624,  625,  636,  635,  393,  394,  405,  404
 349,  625,  626,  637,  636,  394,  395,  406,  405
 350,  626,  627,  638,  637,  395,  396,  407,  406
 351,  628,  629,  640,  639,  397,  398,  409,  408
 352,  629,  630,  641,  640,  398,  399,  410,  409
 353,  630,  631,  642,  641,  399,  400,  411,  410
 354,  631,  632,  643,  642,  400,  401,  412,  411
 355,  632,  633,  644,  643,  401,  402,  413,  412
 356,  633,  634,  645,  644,  402,  403,  414,  413
 357,  634,  635,  646,  645,  403,  404,  415,  414
 358,  635,  636,  647,  646,  404,  405,  416,  415
 359,  636,  637,  648,  647,  405,  406,  417,  416
 360,  637,  638,  649,  648,  406,  407,  418,  417
 361,  639,  640,  651,  650,  408,  409,  420,  419
 362,  640,  641,  652,  651,  409,  410,  421,  420
 363,  641,  642,  653,  652,  410,  411,  422,  421
 364,  642,  643,  654,  653,  411,  412,  423,  422
 365,  643,  644,  655,  654,  412,  413,  424,  423
 366,  644,  645,  656,  655,  413,  414,  425,  424
 367,  645,  646,  657,  656,  414,  415,  426,  425
 368,  646,  647,  658,  657,  415,  416,  427,  426
 369,  647,  648,  659,  658,  416,  417,  428,  427
 370,  648,  649,  660,  659,  417,  418,  429,  428
 371,  650,  651,  662,  661,  419,  420,  431,  430
 372,  651,  652,  663,  662,  420,  421,  432,  431
 373,  652,  653,  664,  663,  421,  422,  433,  432
 374,  653,  654,  665,  664,  422,  423,  434,  433
 375,  654,  655,  666,  665,  423,  424,  435,  434
 376,  655,  656,  667,  666,  424,  425,  436,  435
 377,  656,  657,  668,  667,  425,  426,  437,  436
 378,  657,  658,  669,  668,  426,  427,  438,  437
 379,  658,  659,  670,  669,  427,  428,  439,  438
 380,  659,  660,  671,  670,  428,  429,  440,  439
 381,  661,  662,  673,  672,  430,  431,  442,  441
 382,  662,  663,  674,  673,  431,  432,  443,  442
 383,  663,  664,  675,  674,  432,  433,  444,  443
 384,  664,  665,  676,  675,  433,  434,  445,  444
 385,  665,  666,  677,  676,  434,  435,  446,  445
 386,  666,  667,  678,  677,  435,  436,  447,  446
 387,  667,  668,  679,  678,  436,  437,  448,  447
 388,  668,  669,  680,  679,  437,  438,  449,  448
 389,  669,  670,  681,  680,  438,  439,  450,  449
 390,  670,  671,  682,  681,  439,  440,  451,  450
 391,  672,  673,  684,  683,  441,  442,  453,  452
 392,  673,  674,  685,  684,  442,  443,  454,  453
 393,  674,  675,  686,  685,  443,  444,  455,  454
 394,  675,  676,  687,  686,  444,  445,  456,  455
 395,  676,  677,  688,  687,  445,  446,  457,  456
 396,  677,  678,  689,  688,  446,  447,  458,  457
 397,  678,  679,  690,  689,  447,  448,  459,  458
 398,  679,  680,  691,  690,  448,  449,  460,  459
 399,  680,  681,  692,  691,  449,  450,  461,  460
 400,  681,  682,  693,  692,  450,  451,  462,  461
 401,  694,  695,  706,  705,  463,  464,  475,  474
 402,  695,  696,  707,  706,  464,  465,  476,  475
 403,  696,  697,  708,  707,  465,  466,  477,  476
 404,  697,  698,  709,  708,  466,  467,  478,  477
 405,  698,  699,  710,  709,  467,  468,  479,  478
 406,  699,  700,  711,  710,  468,  469,  480,  479
 407,  700,  701,  712,  711,  469,  470,  481,  480
 408,  701,  702,  713,  712,  470,  471,  482,  481
 409,  702,  703,  714,  713,  471,  472,  483,  482
 410,  703,  704,  715,  714,  472,  473,  484,  483
 411,  705,  706,  717,  716,  474,  475,  486,  485
 412,  706,  707,  718,  717,  475,  476,  487,  486
 413,  707,  708,  719,  718,  476,  477,  488,  487
 414,  708,  709,  720,  719,  477,  478,  489,  488
 415,  709,  710,  721,  720,  478,  479,  490,  489
 416,  710,  711,  722,  721,  479,  480,  491,  490
 417,  711,  712,  723,  722,  480,  481,  492,  491
 418,  712,  713,  724,  723,  481,  482,  493,  492
 419,  713,  714,  725,  724,  482,  483,  494,  493
 420,  714,  715,  726,  725,  483,  484,  495,  494
 421,  716,  717,  728,  727,  485,  486,  497,  496
 422,  717,  718,  729,  728,  486,  487,  498,  497
 423,  718,  719,  730,  729,  487,  488,  499,  498
 424,  719,  720,  731,  730,  488,  489,  500,  499
 425,  720,  721,  732,  731,  489,  490,  501,  500
 426,  721,  722,  733,  732,  490,  491,  502,  501
 427,  722,  723,  734,  733,  491,  492,  503,  502
 428,  723,  724,  735,  734,  492,  493,  504,  503
 429,  724,  725,  736,  735,  493,  494,  505,  504
 430,  725,  726,  737,  736,  494,  495,  506,  505
 431,  727,  728,  739,  738,  496,  497,  508,  507
 432,  728,  729,  740,  739,  497,  498,  509,  508
 433,  729,  730,  741,  740,  498,  499,  510,  509
 434,  730,  731,  742,  741,  499,  500,  511,  510
 435,  731,  732,  743,  742,  500,  501,  512,  511
 436,  732,  733,  744,  743,  501,  502,  513,  512
 437,  733,  734,  745,  744,  502,  503,  514,  513
 438,  734,  735,  746,  745,  503,  504,  515,  514
 439,  735,  736,  747,  746,  504,  505,  516,  515
 440,  736,  737,  748,  747,  505,  506,  517,  516
 441,  738,  739,  750,  749,  507,  508,  519,  518
 442,  739,  740,  751,  750,  508,  509,  520,  519
 443,  740,  741,  752,  751,  509,  510,  521,  520
 444,  741,  742,  753,  752,  510,  511,  522,  521
 445,  742,  743,  754,  753,  511,  512,  523,  522
 446,  743,  744,  755,  754,  512,  513,  524,  523
 447,  744,  745,  756,  755,  513,  514,  525,  524
 448,  745,  746,  757,  756,  514,  515,  526,  525
 449,  746,  747,  758,  757,  515,  516,  527,  526
 450,  747,  748,  759,  758,  516,  517,  528,  527
 451,  749,  750,  761,  760,  518,  519,  530,  529
 452,  750,  751,  762,  761,  519,  520,  531,  530
 453,  751,  752,  763,  762,  520,  521,  532,  531
 454,  752,  753,  764,  763,  521,  522,  533,  532
 455,  753,  754,  765,  764,  522,  523,  534,  533
 456,  754,  755,  766,  765,  523,  524,  535,  534
 457,  755,  756,  767,  766,  524,  525,  536,  535
 458,  756,  757,  768,  767,  525,  526,  537,  536
 459,  757,  758,  769,  768,  526,  527,  538,  537
 460,  758,  759,  770,  769,  527,  528,  539,  538
 461,  760,  761,  772,  771,  529,  530,  541,  540
 462,  761,  762,  773,  772,  530,  531,  542,  541
 463,  762,  763,  774,  773,  531,  532,  543,  542
 464,  763,  764,  775,  774,  532,  533,  544,  543
 465,  764,  765,  776,  775,  533,  534,  545,  544
 466,  765,  766,  777,  776,  534,  535,  546,  545
 467,  766,  767,  778,  777,  535,  536,  547,  546
 468,  767,  768,  779,  778,  536,  537,  548,  547
 469,  768,  769,  780,  779,  537,  538,  549,  548
 470,  769,  770,  781,  780,  538,  539,  550,  549
 471,  771,  772,  783,  782,  540,  541,  552,  551
 472,  772,  773,  784,  783,  541,  542,  553,  552
 473,  773,  774,  785,  784,  542,  543,  554,  553
 474,  774,  775,  786,  785,  543,  544,  555,  554
 475,  775,  776,  787,  786,  544,  545,  556,  555
 476,  776,  777,  788,  787,  545,  546,  557,  556
 477,  777,  778,  789,  788,  546,  547,  558,  557
 478,  778,  779,  790,  789,  547,  548,  559,  558
 479,  779,  780,  791,  790,  548,  549,  560,  559
 480,  780,  781,  792,  791,  549,  550,  561,  560
 481,  782,  783,  794,  793,  551,  552,  563,  562
 482,  783,  784,  795,  794,  552,  553,  564,  563
 483,  784,  785,  796,  795,  553,  554,  565,  564
 484,  785,  786,  797,  796,  554,  555,  566,  565
 485,  786,  787,  798,  797,  555,  556,  567,  566
 486,  787,  788,  799,  798,  556,  557,  568,  567
 487,  788,  789,  800,  799,  557,  558,  569,  568
 488,  789,  790,  801,  800,  558,  559,  570,  569
 489,  790,  791,  802,  801,  559,  560,  571,  570
 490,  791,  792,  803,  802,  560,  561,  572,  571
 491,  793,  794,  805,  804,  562,  563,  574,  573
 492,  794,  795,  806,  805,  563,  564,  575,  574
 493,  795,  796,  807,  806,  564,  565,  576,  575
 494,  796,  797,  808,  807,  565,  566,  577,  576
 495,  797,  798,  809,  808,  566,  567,  578,  577
 496,  798,  799,  810,  809,  567,  568,  579,  578
 497,  799,  800,  811,  810,  568,  569,  580,  579
 498,  800,  801,  812,  811,  569,  570,  581,  580
 499,  801,  802,  813,  812,  570,  571,  582,  581
 500,  802,  803,  814,  813,  571,  572,  583,  582
 501,  804,  805,  816,  815,  573,  574,  585,  584
 502,  805,  806,  817,  816,  574,  575,  586,  585
 503,  806,  807,  818,  817,  575,  576,  587,  586
 504,  807,  808,  819,  818,  576,  577,  588,  587
 505,  808,  809,  820,  819,  577,  578,  589,  588
 506,  809,  810,  821,  820,  578,  579,  590,  589
 507,  810,  811,  822,  821,  579,  580,  591,  590
 508,  811,  812,  823,  822,  580,  581,  592,  591
 509,  812,  813,  824,  823,  581,  582,  593,  592
 510,  813,  814,  825,  824,  582,  583,  594,  593
 511,  815,  816,  827,  826,  584,  585,  596,  595
 512,  816,  817,  828,  827,  585,  586,  597,  596
 513,  817,  818,  829,  828,  586,  587,  598,  597
 514,  818,  819,  830,  829,  587,  588,  599,  598
 515,  819,  820,  831,  830,  588,  589,  600,  599
 516,  820,  821,  832,  831,  589,  590,  601,  600
 517,  821,  822,  833,  832,  590,  591,  602,  601
 518,  822,  823,  834,  833,  591,  592,  603,  602
 519,  823,  824,  835,  834,  592,  593,  604,  603
 520,  824,  825,  836,  835,  593,  594,  605,  604
 521,  826,  827,  838,  837,  595,  596,  607,  606
 522,  827,  828,  839,  838,  596,  597,  608,  607
 523,  828,  829,  840,  839,  597,  598,  609,  608
 524,  829,  830,  841,  840,  598,  599,  610,  609
 525,  830,  831,  842,  841,  599,  600,  611,  610
 526,  831,  832,  843,  842,  600,  601,  612,  611
 527,  832,  833,  844,  843,  601,  602,  613,  612
 528,  833,  834,  845,  844,  602,  603,  614,  613
 529,  834,  835,  846,  845,  603,  604,  615,  614
 530,  835,  836,  847,  846,  604,  605,  616,  615
 531,  837,  838,  849,  848,  606,  607,  618,  617
 532,  838,  839,  850,  849,  607,  608,  619,  618
 533,  839,  840,  851,  850,  608,  609,  620,  619
 534,  840,  841,  852,  851,  609,  610,  621,  620
 535,  841,  842,  853,  852,  610,  611,  622,  621
 536,  842,  843,  854,  853,  611,  612,  623,  622
 537,  843,  844,  855,  854,  612,  613,  624,  623
 538,  844,  845,  856,  855,  613,  614,  625,  624
 539,  845,  846,  857,  856,  614,  615,  626,  625
 540,  846,  847,  858,  857,  615,  616,  627,  626
 541,  848,  849,  860,  859,  617,  618,  629,  628
 542,  849,  850,  861,  860,  618,  619,  630,  629
 543,  850,  851,  862,  861,  619,  620,  631,  630
 544,  851,  852,  863,  862,  620,  621,  632,  631
 545,  852,  853,  864,  863,  621,  622,  633,  632
 546,  853,  854,  865,  864,  622,  623,  634,  633
 547,  854,  855,  866,  865,  623,  624,  635,  634
 548,  855,  856,  867,  866,  624,  625,  636,  635
 549,  856,  857,  868,  867,  625,  626,  637,  636
 550,  857,  858,  869,  868,  626,  627,  638,  637
 551,  859,  860,  871,  870,  628,  629,  640,  639
 552,  860,  861,  872,  871,  629,  630,  641,  640
 553,  861,  862,  873,  872,  630,  631,  642,  641
 554,  862,  863,  874,  873,  631,  632,  643,  642
 555,  863,  864,  875,  874,  632,  633,  644,  643
 556,  864,  865,  876,  875,  633,  634,  645,  644
 557,  865,  866,  877,  876,  634,  635,  646,  645
 558,  866,  867,  878,  877,  635,  636,  647,  646
 559,  867,  868,  879,  878,  636,  637,  648,  647
 560,  868,  869,  880,  879,  637,  638,  649,  648
 561,  870,  871,  882,  881,  639,  640,  651,  650
 562,  871,  872,  883,  882,  640,  641,  652,  651
 563,  872,  873,  884,  883,  641,  642,  653,  652
 564,  873,  874,  885,  884,  642,  643,  654,  653
 565,  874,  875,  886,  885,  643,  644,  655,  654
 566,  875,  876,  887,  886,  644,  645,  656,  655
 567,  876,  877,  888,  887,  645,  646,  657,  656
 568,  877,  878,  889,  888,  646,  647,  658,  657
 569,  878,  879,  890,  889,  647,  648,  659,  658
 570,  879,  880,  891,  890,  648,  649,  660,  659
 571,  881,  882,  893,  892,  650,  651,  662,  661
 572,  882,  883,  894,  893,  651,  652,  663,  662
 573,  883,  884,  895,  894,  652,  653,  664,  663
 574,  884,  885,  896,  895,  653,  654,  665,  664
 575,  885,  886,  897,  896,  654,  655,  666,  665
 576,  886,  887,  898,  897,  655,  656,  667,  666
 577,  887,  888,  899,  898,  656,  657,  668,  667
 578,  888,  889,  900,  899,  657,  658,  669,  668
 579,  889,  890,  901,  900,  658,  659,  670,  669
 580,  890,  891,  902,  901,  659,  660,  671,  670
 581,  892,  893,  904,  903,  661,  662,  673,  672
 582,  893,  894,  905,  904,  662,  663,  674,  673
 583,  894,  895,  906,  905,  663,  664,  675,  674
 584,  895,  896,  907,  906,  664,  665,  676,  675
 585,  896,  897,  908,  907,  665,  666,  677,  676
 586,  897,  898,  909,  908,  666,  667,  678,  677
 587,  898,  899,  910,  909,  667,  668,  679,  678
 588,  899,  900,  911,  910,  668,  669,  680,  679
 589,  900,  901,  912,  911,  669,  670,  681,  680
 590,  901,  902,  913,  912,  670,  671,  682,  681
 591,  903,  904,  915,  914,  672,  673,  684,  683
 592,  904,  905,  916,  915,  673,  674,  685,  684
 593,  905,  906,  917,  916,  674,  675,  686,  685
 594,  906,  907,  918,  917,  675,  676,  687,  686
 595,  907,  908,  919,  918,  676,  677,  688,  687
 596,  908,  909,  920,  919,  677,  678,  689,  688
 597,  909,  910,  921,  920,  678,  679,  690,  689
 598,  910,  911,  922,  921,  679,  680,  691,  690
 599,  911,  912,  923,  922,  680,  681,  692,  691
 600,  912,  913,  924,  923,  681,  682,  693,  692
 601,  925,  926,  937,  936,  694,  695,  706,  705
 602,  926,  927,  938,  937,  695,  696,  707,  706
 603,  927,  928,  939,  938,  696,  697,  708,  707
 604,  928,  929,  940,  939,  697,  698,  709,  708
 605,  929,  930,  941,  940,  698,  699,  710,  709
 606,  930,  931,  942,  941,  699,  700,  711,  710
 607,  931,  932,  943,  942,  700,  701,  712,  711
 608,  932,  933,  944,  943,  701,  702,  713,  712
 609,  933,  934,  945,  944,  702,  703,  714,  713
 610,  934,  935,  946,  945,  703,  704,  715,  714
 611,  936,  937,  948,  947,  705,  706,  717,  716
 612,  937,  938,  949,  948,  706,  707,  718,  717
 613,  938,  939,  950,  949,  707,  708,  719,  718
 614,  939,  940,  951,  950,  708,  709,  720,  719
 615,  940,  941,  952,  951,  709,  710,  721,  720
 616,  941,  942,  953,  952,  710,  711,  722,  721
 617,  942,  943,  954,  953,  711,  712,  723,  722
 618,  943,  944,  955,  954,  712,  713,  724,  723
 619,  944,  945,  956,  955,  713,  714,  725,  724
 620,  945,  946,  957,  956,  714,  715,  726,  725
 621,  947,  948,  959,  958,  716,  717,  728,  727
 622,  948,  949,  960,  959,  717,  718,  729,  728
 623,  949,  950,  961,  960,  718,  719,  730,  729
 624,  950,  951,  962,  961,  719,  720,  731,  730
 625,  951,  952,  963,  962,  720,  721,  732,  731
 626,  952,  953,  964,  963,  721,  722,  733,  732
 627,  953,  954,  965,  964,  722,  723,  734,  733
 628,  954,  955,  966,  965,  723,  724,  735,  734
 629,  955,  956,  967,  966,  724,  725,  736,  735
 630,  956,  957,  968,  967,  725,  726,  737,  736
 631,  958,  959,  970,  969,  727,  728,  739,  738
 632,  959,  960,  971,  970,  728,  729,  740,  739
 633,  960,  961,  972,  971,  729,  730,  741,  740
 634,  961,  962,  973,  972,  730,  731,  742,  741
 635,  962,  963,  974,  973,  731,  732,  743,  742
 636,  963,  964,  975,  974,  732,  733,  744,  743
 637,  964,  965,  976,  975,  733,  734,  745,  744
 638,  965,  966,  977,  976,  734,  735,  746,  745
 639,  966,  967,  978,  977,  735,  736,  747,  746
 640,  967,  968,  979,  978,  736,  737,  748,  747
 641,  969,  970,  981,  980,  738,  739,  750,  749
 642,  970,  971,  982,  981,  739,  740,  751,  750
 643,  971,  972,  983,  982,  740,  741,  752,  751
 644,  972,  973,  984,  983,  741,  742,  753,  752
 645,  973,  974,  985,  984,  742,  743,  754,  753
 646,  974,  975,  986,  985,  743,  744,  755,  754
 647,  975,  976,  987,  986,  744,  745,  756,  755
 648,  976,  977,  988,  987,  745,  746,  757,  756
 649,  977,  978,  989,  988,  746,  747,  758,  757
 650,  978,  979,  990,  989,  747,  748,  759,  758
 651,  980,  981,  992,  991,  749,  750,  761,  760
 652,  981,  982,  993,  992,  750,  751,  762,  761
 653,  982,  983,  994,  993,  751,  752,  763,  762
 654,  983,  984,  995,  994,  752,  753,  764,  763
 655,  984,  985,  996,  995,  753,  754,  765,  764
 656,  985,  986,  997,  996,  754,  755,  766,  765
 657,  986,  987,  998,  997,  755,  756,  767,  766
 658,  987,  988,  999,  998,  756,  757,  768,  767
 659,  988,  989, 1000,  999,  757,  758,  769,  768
 660,  989,  990, 1001, 1000,  758,  759,  770,  769
 661,  991,  992, 1003, 1002,  760,  761,  772,  771
 662,  992,  993, 1004, 1003,  761,  762,  773,  772
 663,  993,  994, 1005, 1004,  762,  763,  774,  773
 664,  994,  995, 1006, 1005,  763,  764,  775,  774
 665,  995,  996, 1007, 1006,  764,  765,  776,  775
 666,  996,  997, 1008, 1007,  765,  766,  777,  776
 667,  997,  998, 1009, 1008,  766,  767,  778,  777
 668,  998,  999, 1010, 1009,  767,  768,  779,  778
 669,  999, 1000, 1011, 1010,  768,  769,  780,  779
 670, 1000, 1001, 1012, 1011,  769,  770,  781,  780
 671, 1002, 1003, 1014, 1013,  771,  772,  783,  782
 672, 1003, 1004, 1015, 1014,  772,  773,  784,  783
 673, 1004, 1005, 1016, 1015,  773,  774,  785,  784
 674, 1005, 1006, 1017, 1016,  774,  775,  786,  785
 675, 1006, 1007, 1018, 1017,  775,  776,  787,  786
 676, 1007, 1008, 1019, 1018,  776,  777,  788,  787
 677, 1008, 1009, 1020, 1019,  777,  778,  789,  788
 678, 1009, 1010, 1021, 1020,  778,  779,  790,  789
 679, 1010, 1011, 1022, 1021,  779,  780,  791,  790
 680, 1011, 1012, 1023, 1022,  780,  781,  792,  791
 681, 1013, 1014, 1025, 1024,  782,  783,  794,  793
 682, 1014, 1015, 1026, 1025,  783,  784,  795,  794
 683, 1015, 1016, 1027, 1026,  784,  785,  796,  795
 684, 1016, 1017, 1028, 1027,  785,  786,  797,  796
 685, 1017, 1018, 1029, 1028,  786,  787,  798,  797
 686, 1018, 1019, 1030, 1029,  787,  788,  799,  798
 687, 1019, 1020, 1031, 1030,  788,  789,  800,  799
 688, 1020, 1021, 1032, 1031,  789,  790,  801,  800
 689, 1021, 1022, 1033, 1032,  790,  791,  802,  801
 690, 1022, 1023, 1034, 1033,  791,  792,  803,  802
 691, 1024, 1025, 1036, 1035,  793,  794,  805,  804
 692, 1025, 1026, 1037, 1036,  794,  795,  806,  805
 693, 1026, 1027, 1038, 1037,  795,  796,  807,  806
 694, 1027, 1028, 1039, 1038,  796,  797,  808,  807
 695, 1028, 1029, 1040, 1039,  797,  798,  809,  808
 696, 1029, 1030, 1041, 1040,  798,  799,  810,  809
 697, 1030, 1031, 1042, 1041,  799,  800,  811,  810
 698, 1031, 1032, 1043, 1042,  800,  801,  812,  811
 699, 1032, 1033, 1044, 1043,  801,  802,  813,  812
 700, 1033, 1034, 1045, 1044,  802,  803,  814,  813
 701, 1035, 1036, 1047, 1046,  804,  805,  816,  815
 702, 1036, 1037, 1048, 1047,  805,  806,  817,  816
 703, 1037, 1038, 1049, 1048,  806,  807,  818,  817
 704, 1038, 1039, 1050, 1049,  807,  808,  819,  818
 705, 1039, 1040, 1051, 1050,  808,  809,  820,  819
 706, 1040, 1041, 1052, 1051,  809,  810,  821,  820
 707, 1041, 1042, 1053, 1052,  810,  811,  822,  821
 708, 1042, 1043, 1054, 1053,  811,  812,  823,  822
 709, 1043, 1044, 1055, 1054,  812,  813,  824,  823
 710, 1044, 1045, 1056, 1055,  813,  814,  825,  824
 711, 1046, 1047, 1058, 1057,  815,  816,  827,  826
 712, 1047, 1048, 1059, 1058,  816,  817,  828,  827
 713, 1048, 1049, 1060, 1059,  817,  818,  829,  828
 714, 1049, 1050, 1061, 1060,  818,  819,  830,  829
 715, 1050, 1051, 1062, 1061,  819,  820,  831,  830
 716, 1051, 1052, 1063, 1062,  820,  821,  832,  831
 717, 1052, 1053, 1064, 1063,  821,  822,  833,  832
 718, 1053, 1054, 1065, 1064,  822,  823,  834,  833
 719, 1054, 1055, 1066, 1065,  823,  824,  835,  834
 720, 1055, 1056, 1067, 1066,  824,  825,  836,  835
 721, 1057, 1058, 1069, 1068,  826,  827,  838,  837
 722, 1058, 1059, 1070, 1069,  827,  828,  839,  838
 723, 1059, 1060, 1071, 1070,  828,  829,  840,  839
 724, 1060, 1061, 1072, 1071,  829,  830,  841,  840
 725, 1061, 1062, 1073, 1072,  830,  831,  842,  841
 726, 1062, 1063, 1074, 1073,  831,  832,  843,  842
 727, 1063, 1064, 1075, 1074,  832,  833,  844,  843
 728, 1064, 1065, 1076, 1075,  833,  834,  845,  844
 729, 1065, 1066, 1077, 1076,  834,  835,  846,  845
 730, 1066, 1067, 1078, 1077,  835,  836,  847,  846
 731, 1068, 1069, 1080, 1079,  837,  838,  849,  848
 732, 1069, 1070, 1081, 1080,  838,  839,  850,  849
 733, 1070, 1071, 1082, 1081,  839,  840,  851,  850
 734, 1071, 1072, 1083, 1082,  840,  841,  852,  851
 735, 1072, 1073, 1084, 1083,  841,  842,  853,  852
 736, 1073, 1074, 1085, 1084,  842,  843,  854,  853
 737, 1074, 1075, 1086, 1085,  843,  844,  855,  854
 738, 1075, 1076, 1087, 1086,  844,  845,  856,  855
 739, 1076, 1077, 1088, 1087,  845,  846,  857,  856
 740, 1077, 1078, 1089, 1088,  846,  847,  858,  857
 741, 1079, 1080, 1091, 1090,  848,  849,  860,  859
 742, 1080, 1081, 1092, 1091,  849,  850,  861,  860
 743, 1081, 1082, 1093, 1092,  850,  851,  862,  861
 744, 1082, 1083, 1094, 1093,  851,  852,  863,  862
 745, 1083, 1084, 1095, 1094,  852,  853,  864,  863
 746, 1084, 1085, 1096, 1095,  853,  854,  865,  864
 747, 1085, 1086, 1097, 1096,  854,  855,  866,  865
 748, 1086, 1087, 1098, 1097,  855,  856,  867,  866
 749, 1087, 1088, 1099, 1098,  856,  857,  868,  867
 750, 1088, 1089, 1100, 1099,  857,  858,  869,  868
 751, 1090, 1091, 1102, 1101,  859,  860,  871,  870
 752, 1091, 1092, 1103, 1102,  860,  861,  872,  871
 753, 1092, 1093, 1104, 1103,  861,  862,  873,  872
 754, 1093, 1094, 1105, 1104,  862,  863,  874,  873
 755, 1094, 1095, 1106, 1105,  863,  864,  875,  874
 756, 1095, 1096, 1107, 1106,  864,  865,  876,  875
 757, 1096, 1097, 1108, 1107,  865,  866,  877,  876
 758, 1097, 1098, 1109, 1108,  866,  867,  878,  877
 759, 1098, 1099, 1110, 1109,  867,  868,  879,  878
 760, 1099, 1100, 1111, 1110,  868,  869,  880,  879
 761, 1101, 1102, 1113, 1112,  870,  871,  882,  881
 762, 1102, 1103, 1114, 1113,  871,  872,  883,  882
 763, 1103, 1104, 1115, 1114,  872,  873,  884,  883
 764, 1104, 1105, 1116, 1115,  873,  874,  885,  884
 765, 1105, 1106, 1117, 1116,  874,  875,  886,  885
 766, 1106, 1107, 1118, 1117,  875,  876,  887,  886
 767, 1107, 1108, 1119, 1118,  876,  877,  888,  887
 768, 1108, 1109, 1120, 1119,  877,  878,  889,  888
 769, 1109, 1110, 1121, 1120,  878,  879,  890,  889
 770, 1110, 1111, 1122, 1121,  879,  880,  891,  890
 771, 1112, 1113, 1124, 1123,  881,  882,  893,  892
 772, 1113, 1114, 1125, 1124,  882,  883,  894,  893
 773, 1114, 1115, 1126, 1125,  883,  884,  895,  894
 774, 1115, 1116, 1127, 1126,  884,  885,  896,  895
 775, 1116, 1117, 1128, 1127,  885,  886,  897,  896
 776, 1117, 1118, 1129, 1128,  886,  887,  898,  897
 777, 1118, 1119, 1130, 1129,  887,  888,  899,  898
 778, 1119, 1120, 1131, 1130,  888,  889,  900,  899
 779, 1120, 1121, 1132, 1131,  889,  890,  901,  900
 780, 1121, 1122, 1133, 1132,  890,  891,  902,  901
 781, 1123, 1124, 1135, 1134,  892,  893,  904,  903
 782, 1124, 1125, 1136, 1135,  893,  894,  905,  904
 783, 1125, 1126, 1137, 1136,  894,  895,  906,  905
 784, 1126, 1127, 1138, 1137,  895,  896,  907,  906
 785, 1127, 1128, 1139, 1138,  896,  897,  908,  907
 786, 1128, 1129, 1140, 1139,  897,  898,  909,  908
 787, 1129, 1130, 1141, 1140,  898,  899,  910,  909
 788, 1130, 1131, 1142, 1141,  899,  900,  911,  910
 789, 1131, 1132, 1143, 1142,  900,  901,  912,  911
 790, 1132, 1133, 1144, 1143,  901,  902,  913,  912
 791, 1134, 1135, 1146, 1145,  903,  904,  915,  914
 792, 1135, 1136, 1147, 1146,  904,  905,  916,  915
 793, 1136, 1137, 1148, 1147,  905,  906,  917,  916
 794, 1137, 1138, 1149, 1148,  906,  907,  918,  917
 795, 1138, 1139, 1150, 1149,  907,  908,  919,  918
 796, 1139, 1140, 1151, 1150,  908,  909,  920,  919
 797, 1140, 1141, 1152, 1151,  909,  910,  921,  920
 798, 1141, 1142, 1153, 1152,  910,  911,  922,  921
 799, 1142, 1143, 1154, 1153,  911,  912,  923,  922
 800, 1143, 1144, 1155, 1154,  912,  913,  924,  923
 801, 1156, 1157, 1168, 1167,  925,  926,  937,  936
 802, 1157, 1158, 1169, 1168,  926,  927,  938,  937
 803, 1158, 1159, 1170, 1169,  927,  928,  939,  938
 804, 1159, 1160, 1171, 1170,  928,  929,  940,  939
 805, 1160, 1161, 1172, 1171,  929,  930,  941,  940
 806, 1161, 1162, 1173, 1172,  930,  931,  942,  941
 807, 1162, 1163, 1174, 1173,  931,  932,  943,  942
 808, 1163, 1164, 1175, 1174,  932,  933,  944,  943
 809, 1164, 1165, 1176, 1175,  933,  934,  945,  944
 810, 1165, 1166, 1177, 1176,  934,  935,  946,  945
 811, 1167, 1168, 1179, 1178,  936,  937,  948,  947
 812, 1168, 1169, 1180, 1179,  937,  938,  949,  948
 813, 1169, 1170, 1181, 1180,  938,  939,  950,  949
 814, 1170, 1171, 1182, 1181,  939,  940,  951,  950
 815, 1171, 1172, 1183, 1182,  940,  941,  952,  951
 816, 1172, 1173, 1184, 1183,  941,  942,  953,  952
 817, 1173, 1174, 1185, 1184,  942,  943,  954,  953
 818, 1174, 1175, 1186, 1185,  943,  944,  955,  954
 819, 1175, 1176, 1187, 1186,  944,  945,  956,  955
 820, 1176, 1177, 1188, 1187,  945,  946,  957,  956
 821, 1178, 1179, 1190, 1189,  947,  948,  959,  958
 822, 1179, 1180, 1191, 1190,  948,  949,  960,  959
 823, 1180, 1181, 1192, 1191,  949,  950,  961,  960
 824, 1181, 1182, 1193, 1192,  950,  951,  962,  961
 825, 1182, 1183, 1194, 1193,  951,  952,  963,  962
 826, 1183, 1184, 1195, 1194,  952,  953,  964,  963
 827, 1184, 1185, 1196, 1195,  953,  954,  965,  964
 828, 1185, 1186, 1197, 1196,  954,  955,  966,  965
 829, 1186, 1187, 1198, 1197,  955,  956,  967,  966
 830, 1187, 1188, 1199, 1198,  956,  957,  968,  967
 831, 1189, 1190, 1201, 1200,  958,  959,  970,  969
 832, 1190, 1191, 1202, 1201,  959,  960,  971,  970
 833, 1191, 1192, 1203, 1202,  960,  961,  972,  971
 834, 1192, 1193, 1204, 1203,  961,  962,  973,  972
 835, 1193, 1194, 1205, 1204,  962,  963,  974,  973
 836, 1194, 1195, 1206, 1205,  963,  964,  975,  974
 837, 1195, 1196, 1207, 1206,  964,  965,  976,  975
 838, 1196, 1197, 1208, 1207,  965,  966,  977,  976
 839, 1197, 1198, 1209, 1208,  966,  967,  978,  977
 840, 1198, 1199, 1210, 1209,  967,  968,  979,  978
 841, 1200, 1201, 1212, 1211,  969,  970,  981,  980
 842, 1201, 1202, 1213, 1212,  970,  971,  982,  981
 843, 1202, 1203, 1214, 1213,  971,  972,  983,  982
 844, 1203, 1204, 1215, 1214,  972,  973,  984,  983
 845, 1204, 1205, 1216, 1215,  973,  974,  985,  984
 846, 1205, 1206, 1217, 1216,  974,  975,  986,  985
 847, 1206, 1207, 1218, 1217,  975,  976,  987,  986
 848, 1207, 1208, 1219, 1218,  976,  977,  988,  987
 849, 1208, 1209, 1220, 1219,  977,  978,  989,  988
 850, 1209, 1210, 1221, 1220,  978,  979,  990,  989
 851, 1211, 1212, 1223, 1222,  980,  981,  992,  991
 852, 1212, 1213, 1224, 1223,  981,  982,  993,  992
 853, 1213, 1214, 1225, 1224,  982,  983,  994,  993
 854, 1214, 1215, 1226, 1225,  983,  984,  995,  994
 855, 1215, 1216, 1227, 1226,  984,  985,  996,  995
 856, 1216, 1217, 1228, 1227,  985,  986,  997,  996
 857, 1217, 1218, 1229, 1228,  986,  987,  998,  997
 858, 1218, 1219, 1230, 1229,  987,  988,  999,  998
 859, 1219, 1220, 1231, 1230,  988,  989, 1000,  999
 860, 1220, 1221, 1232, 1231,  989,  990, 1001, 1000
 861, 1222, 1223, 1234, 1233,  991,  992, 1003, 1002
 862, 1223, 1224, 1235, 1234,  992,  993, 1004, 1003
 863, 1224, 1225, 1236, 1235,  993,  994, 1005, 1004
 864, 1225, 1226, 1237, 1236,  994,  995, 1006, 1005
 865, 1226, 1227, 1238, 1237,  995,  996, 1007, 1006
 866, 1227, 1228, 1239, 1238,  996,  997, 1008, 1007
 867, 1228, 1229, 1240, 1239,  997,  998, 1009, 1008
 868, 1229, 1230, 1241, 1240,  998,  999, 1010, 1009
 869, 1230, 1231, 1242, 1241,  999, 1000, 1011, 1010
 870, 1231, 1232, 1243, 1242, 1000, 1001, 1012, 1011
 871, 1233, 1234, 1245, 1244, 1002, 1003, 1014, 1013
 872, 1234, 1235, 1246, 1245, 1003, 1004, 1015, 1014
 873, 1235, 1236, 1247, 1246, 1004, 1005, 1016, 1015
 874, 1236, 1237, 1248, 1247, 1005, 1006, 1017, 1016
 875, 1237, 1238, 1249, 1248, 1006, 1007, 1018, 1017
 876, 1238, 1239, 1250, 1249, 1007, 1008, 1019, 1018
 877, 1239, 1240, 1251, 1250, 1008, 1009, 1020, 1019
 878, 1240, 1241, 1252, 1251, 1009, 1010, 1021, 1020
 879, 1241, 1242, 1253, 1252, 1010, 1011, 1022, 1021
 880, 1242, 1243, 1254, 1253, 1011, 1012, 1023, 1022
 881, 1244, 1245, 1256, 1255, 1013, 1014, 1025, 1024
 882, 1245, 1246, 1257, 1256, 1014, 1015, 1026, 1025
 883, 1246, 1247, 1258, 1257, 1015, 1016, 1027, 1026
 884, 1247, 1248, 1259, 1258, 1016, 1017, 1028, 1027
 885, 1248, 1249, 1260, 1259, 1017, 1018, 1029, 1028
 886, 1249, 1250, 1261, 1260, 1018, 1019, 1030, 1029
 887, 1250, 1251, 1262, 1261, 1019, 1020, 1031, 1030
 888, 1251, 1252, 1263, 1262, 1020, 1021, 1032, 1031
 889, 1252, 1253, 1264, 1263, 1021, 1022, 1033, 1032
 890, 1253, 1254, 1265, 1264, 1022, 1023, 1034, 1033
 891, 1255, 1256, 1267, 1266, 1024, 1025, 1036, 1035
 892, 1256, 1257, 1268, 1267, 1025, 1026, 1037, 1036
 893, 1257, 1258, 1269, 1268, 1026, 1027, 1038, 1037
 894, 1258, 1259, 1270, 1269, 1027, 1028, 1039, 1038
 895, 1259, 1260, 1271, 1270, 1028, 1029, 1040, 1039
 896, 1260, 1261, 1272, 1271, 1029, 1030, 1041, 1040
 897, 1261, 1262, 1273, 1272, 1030, 1031, 1042, 1041
 898, 1262, 1263, 1274, 1273, 1031, 1032, 1043, 1042
 899, 1263, 1264, 1275, 1274, 1032, 1033, 1044, 1043
 900, 1264, 1265, 1276, 1275, 1033, 1034, 1045, 1044
 901, 1266, 1267, 1278, 1277, 1035, 1036, 1047, 1046
 902, 1267, 1268, 1279, 1278, 1036, 1037, 1048, 1047
 903, 1268, 1269, 1280, 1279, 1037, 1038, 1049, 1048
 904, 1269, 1270, 1281, 1280, 1038, 1039, 1050, 1049
 905, 1270, 1271, 1282, 1281, 1039, 1040, 1051, 1050
 906, 1271, 1272, 1283, 1282, 1040, 1041, 1052, 1051
 907, 1272, 1273, 1284, 1283, 1041, 1042, 1053, 1052
 908, 1273, 1274, 1285, 1284, 1042, 1043, 1054, 1053
 909, 1274, 1275, 1286, 1285, 1043, 1044, 1055, 1054
 910, 1275, 1276, 1287, 1286, 1044, 1045, 1056, 1055
 911, 1277, 1278, 1289, 1288, 1046, 1047, 1058, 1057
 912, 1278, 1279, 1290, 1289, 1047, 1048, 1059, 1058
 913, 1279, 1280, 1291, 1290, 1048, 1049, 1060, 1059
 914, 1280, 1281, 1292, 1291, 1049, 1050, 1061, 1060
 915, 1281, 1282, 1293, 1292, 1050, 1051, 1062, 1061
 916, 1282, 1283, 1294, 1293, 1051, 1052, 1063, 1062
 917, 1283, 1284, 1295, 1294, 1052, 1053, 1064, 1063
 918, 1284, 1285, 1296, 1295, 1053, 1054, 1065, 1064
 919, 1285, 1286, 1297, 1296, 1054, 1055, 1066, 1065
 920, 1286, 1287, 1298, 1297, 1055, 1056, 1067, 1066
 921, 1288, 1289, 1300, 1299, 1057, 1058, 1069, 1068
 922, 1289, 1290, 1301, 1300, 1058, 1059, 1070, 1069
 923, 1290, 1291, 1302, 1301, 1059, 1060, 1071, 1070
 924, 1291, 1292, 1303, 1302, 1060, 1061, 1072, 1071
 925, 1292, 1293, 1304, 1303, 1061, 1062, 1073, 1072
 926, 1293, 1294, 1305, 1304, 1062, 1063, 1074, 1073
 927, 1294, 1295, 1306, 1305, 1063, 1064, 1075, 1074
 928, 1295, 1296, 1307, 1306, 1064, 1065, 1076, 1075
 929, 1296, 1297, 1308, 1307, 1065, 1066, 1077, 1076
 930, 1297, 1298, 1309, 1308, 1066, 1067, 1078, 1077
 931, 1299, 1300, 1311, 1310, 1068, 1069, 1080, 1079
 932, 1300, 1301, 1312, 1311, 1069, 1070, 1081, 1080
 933, 1301, 1302, 1313, 1312, 1070, 1071, 1082, 1081
 934, 1302, 1303, 1314, 1313, 1071, 1072, 1083, 1082
 935, 1303, 1304, 1315, 1314, 1072, 1073, 1084, 1083
 936, 1304, 1305, 1316, 1315, 1073, 1074, 1085, 1084
 937, 1305, 1306, 1317, 1316, 1074, 1075, 1086, 1085
 938, 1306, 1307, 1318, 1317, 1075, 1076, 1087, 1086
 939, 1307, 1308, 1319, 1318, 1076, 1077, 1088, 1087
 940, 1308, 1309, 1320, 1319, 1077, 1078, 1089, 1088
 941, 1310, 1311, 1322, 1321, 1079, 1080, 1091, 1090
 942, 1311, 1312, 1323, 1322, 1080, 1081, 1092, 1091
 943, 1312, 1313, 1324, 1323, 1081, 1082, 1093, 1092
 944, 1313, 1314, 1325, 1324, 1082, 1083, 1094, 1093
 945, 1314, 1315, 1326, 1325, 1083, 1084, 1095, 1094
 946, 1315, 1316, 1327, 1326, 1084, 1085, 1096, 1095
 947, 1316, 1317, 1328, 1327, 1085, 1086, 1097, 1096
 948, 1317, 1318, 1329, 1328, 1086, 1087, 1098, 1097
 949, 1318, 1319, 1330, 1329, 1087, 1088, 1099, 1098
 950, 1319, 1320, 1331, 1330, 1088, 1089, 1100, 1099
 951, 1321, 1322, 1333, 1332, 1090, 1091, 1102, 1101
 952, 1322, 1323, 1334, 1333, 1091, 1092, 1103, 1102
 953, 1323, 1324, 1335, 1334, 1092, 1093, 1104, 1103
 954, 1324, 1325, 1336, 1335, 1093, 1094, 1105, 1104
 955, 1325, 1326, 1337, 1336, 1094, 1095, 1106, 1105
 956, 1326, 1327, 1338, 1337, 1095, 1096, 1107, 1106
 957, 1327, 1328, 1339, 1338, 1096, 1097, 1108, 1107
 958, 1328, 1329, 1340, 1339, 1097, 1098, 1109, 1108
 959, 1329, 1330, 1341, 1340, 1098, 1099, 1110, 1109
 960, 1330, 1331, 1342, 1341, 1099, 1100, 1111, 1110
 961, 1332, 1333, 1344, 1343, 1101, 1102, 1113, 1112
 962, 1333, 1334, 1345, 1344, 1102, 1103, 1114, 1113
 963, 1334, 1335, 1346, 1345, 1103, 1104, 1115, 1114
 964, 1335, 1336, 1347, 1346, 1104, 1105, 1116, 1115
 965, 1336, 1337, 1348, 1347, 1105, 1106, 1117, 1116
 966, 1337, 1338, 1349, 1348, 1106, 1107, 1118, 1117
 967, 1338, 1339, 1350, 1349, 1107, 1108, 1119, 1118
 968, 1339, 1340, 1351, 1350, 1108, 1109, 1120, 1119
 969, 1340, 1341, 1352, 1351, 1109, 1110, 1121, 1120
 970, 1341, 1342, 1353, 1352, 1110, 1111, 1122, 1121
 971, 1343, 1344, 1355, 1354, 1112, 1113, 1124, 1123
 972, 1344, 1345, 1356, 1355, 1113, 1114, 1125, 1124
 973, 1345, 1346, 1357, 1356, 1114, 1115, 1126, 1125
 974, 1346, 1347, 1358, 1357, 1115, 1116, 1127, 1126
 975, 1347, 1348, 1359, 1358, 1116, 1117, 1128, 1127
 976, 1348, 1349, 1360, 1359, 1117, 1118, 1129, 1128
 977, 1349, 1350, 1361, 1360, 1118, 1119, 1130, 1129
 978, 1350, 1351, 1362, 1361, 1119, 1120, 1131, 1130
 979, 1351, 1352, 1363, 1362, 1120, 1121, 1132, 1131
 980, 1352, 1353, 1364, 1363, 1121, 1122, 1133, 1132
 981, 1354, 1355, 1366, 1365, 1123, 1124, 1135, 1134
 982, 1355, 1356, 1367, 1366, 1124, 1125, 1136, 1135
 983, 1356, 1357, 1368, 1367, 1125, 1126, 1137, 1136
 984, 1357, 1358, 1369, 1368, 1126, 1127, 1138, 1137
 985, 1358, 1359, 1370, 1369, 1127, 1128, 1139, 1138
 986, 1359, 1360, 1371, 1370, 1128, 1129, 1140, 1139
 987, 1360, 1361, 1372, 1371, 1129, 1130, 1141, 1140
 988, 1361, 1362, 1373, 1372, 1130, 1131, 1142, 1141
 989, 1362, 1363, 1374, 1373, 1131, 1132, 1143, 1142
 990, 1363, 1364, 1375, 1374, 1132, 1133, 1144, 1143
 991, 1365, 1366, 1377, 1376, 1134, 1135, 1146, 1145
 992, 1366, 1367, 1378, 1377, 1135, 1136, 1147, 1146
 993, 1367, 1368, 1379, 1378, 1136, 1137, 1148, 1147
 994, 1368, 1369, 1380, 1379, 1137, 1138, 1149, 1148
 995, 1369, 1370, 1381, 1380, 1138, 1139, 1150, 1149
 996, 1370, 1371, 1382, 1381, 1139, 1140, 1151, 1150
 997, 1371, 1372, 1383, 1382, 1140, 1141, 1152, 1151
 998, 1372, 1373, 1384, 1383, 1141, 1142, 1153, 1152
 999, 1373, 1374, 1385, 1384, 1142, 1143, 1154, 1153
1000, 1374, 1375, 1386, 1385, 1143, 1144, 1155, 1154
1001, 1387, 1388, 1399, 1398, 1156, 1157, 1168, 1167
1002, 1388, 1389, 1400, 1399, 1157, 1158, 1169, 1168
1003, 1389, 1390, 1401, 1400, 1158, 1159, 1170, 1169
1004, 1390, 1391, 1402, 1401, 1159, 1160, 1171, 1170
1005, 1391, 1392, 1403, 1402, 1160, 1161, 1172, 1171
1006, 1392, 1393, 1404, 1403, 1161, 1162, 1173, 1172
1007, 1393, 1394, 1405, 1404, 1162, 1163, 1174, 1173
1008, 1394, 1395, 1406, 1405, 1163, 1164, 1175, 1174
1009, 1395, 1396, 1407, 1406, 1164, 1165, 1176, 1175
1010, 1396, 1397, 1408, 1407, 1165, 1166, 1177, 1176
1011, 1398, 1399, 1410, 1409, 1167, 1168, 1179, 1178
1012, 1399, 1400, 1411, 1410, 1168, 1169, 1180, 1179
1013, 1400, 1401, 1412, 1411, 1169, 1170, 1181, 1180
1014, 1401, 1402, 1413, 1412, 1170, 1171, 1182, 1181
1015, 1402, 1403, 1414, 1413, 1171, 1172, 1183, 1182
1016, 1403, 1404, 1415, 1414, 1172, 1173, 1184, 1183
1017, 1404, 1405, 1416, 1415, 1173, 1174, 1185, 1184
1018, 1405, 1406, 1417, 1416, 1174, 1175, 1186, 1185
1019, 1406, 1407, 1418, 1417, 1175, 1176, 1187, 1186
1020, 1407, 1408, 1419, 1418, 1176, 1177, 1188, 1187
1021, 1409, 1410, 1421, 1420, 1178, 1179, 1190, 1189
1022, 1410, 1411, 1422, 1421, 1179, 1180, 1191, 1190
1023, 1411, 1412, 1423, 1422, 1180, 1181, 1192, 1191
1024, 1412, 1413, 1424, 1423, 1181, 1182, 1193, 1192
1025, 1413, 1414, 1425, 1424, 1182, 1183, 1194, 1193
1026, 1414, 1415, 1426, 1425, 1183, 1184, 1195, 1194
1027, 1415, 1416, 1427, 1426, 1184, 1185, 1196, 1195
1028, 1416, 1417, 1428, 1427, 1185, 1186, 1197, 1196
1029, 1417, 1418, 1429, 1428, 1186, 1187, 1198, 1197
1030, 1418, 1419, 1430, 1429, 1187, 1188, 1199, 1198
1031, 1420, 1421, 1432, 1431, 1189, 1190, 1201, 1200
1032, 1421, 1422, 1433, 1432, 1190, 1191, 1202, 1201
1033, 1422, 1423, 1434, 1433, 1191, 1192, 1203, 1202
1034, 1423, 1424, 1435, 1434, 1192, 1193, 1204, 1203
1035, 1424, 1425, 1436, 1435, 1193, 1194, 1205, 1204
1036, 1425, 1426, 1437, 1436, 1194, 1195, 1206, 1205
1037, 1426, 1427, 1438, 1437, 1195, 1196, 1207, 1206
1038, 1427, 1428, 1439, 1438, 1196, 1197, 1208, 1207
1039, 1428, 1429, 1440, 1439, 1197, 1198, 1209, 1208
1040, 1429, 1430, 1441, 1440, 1198, 1199, 1210, 1209
1041, 1431, 1432, 1443, 1442, 1200, 1201, 1212, 1211
1042, 1432, 1433, 1444, 1443, 1201, 1202, 1213, 1212
1043, 1433, 1434, 1445, 1444, 1202, 1203, 1214, 1213
1044, 1434, 1435, 1446, 1445, 1203, 1204, 1215, 1214
1045, 1435, 1436, 1447, 1446, 1204, 1205, 1216, 1215
1046, 1436, 1437, 1448, 1447, 1205, 1206, 1217, 1216
1047, 1437, 1438, 1449, 1448, 1206, 1207, 1218, 1217
1048, 1438, 1439, 1450, 1449, 1207, 1208, 1219, 1218
1049, 1439, 1440, 1451, 1450, 1208, 1209, 1220, 1219
1050, 1440, 1441, 1452, 1451, 1209, 1210, 1221, 1220
1051, 1442, 1443, 1454, 1453, 1211, 1212, 1223, 1222
1052, 1443, 1444, 1455, 1454, 1212, 1213, 1224, 1223
1053, 1444, 1445, 1456, 1455, 1213, 1214, 1225, 1224
1054, 1445, 1446, 1457, 1456, 1214, 1215, 1226, 1225
1055, 1446, 1447, 1458, 1457, 1215, 1216, 1227, 1226
1056, 1447, 1448, 1459, 1458, 1216, 1217, 1228, 1227
1057, 1448, 1449, 1460, 1459, 1217, 1218, 1229, 1228
1058, 1449, 1450, 1461, 1460, 1218, 1219, 1230, 1229
1059, 1450, 1451, 1462, 1461, 1219, 1220, 1231, 1230
1060, 1451, 1452, 1463, 1462, 1220, 1221, 1232, 1231
1061, 1453, 1454, 1465, 1464, 1222, 1223, 1234, 1233
1062, 1454, 1455, 1466, 1465, 1223, 1224, 1235, 1234
1063, 1455, 1456, 1467, 1466, 1224, 1225, 1236, 1235
1064, 1456, 1457, 1468, 1467, 1225, 1226, 1237, 1236
1065, 1457, 1458, 1469, 1468, 1226, 1227, 1238, 1237
1066, 1458, 1459, 1470, 1469, 1227, 1228, 1239, 1238
1067, 1459, 1460, 1471, 1470, 1228, 1229, 1240, 1239
1068, 1460, 1461, 1472, 1471, 1229, 1230, 1241, 1240
1069, 1461, 1462, 1473, 1472, 1230, 1231, 1242, 1241
1070, 1462, 1463, 1474, 1473, 1231, 1232, 1243, 1242
1071, 1464, 1465, 1476, 1475, 1233, 1234, 1245, 1244
1072, 1465, 1466, 1477, 1476, 1234, 1235, 1246, 1245
1073, 1466, 1467, 1478, 1477, 1235, 1236, 1247, 1246
1074, 1467, 1468, 1479, 1478, 1236, 1237, 1248, 1247
1075, 1468, 1469, 1480, 1479, 1237, 1238, 1249, 1248
1076, 1469, 1470, 1481, 1480, 1238, 1239, 1250, 1249
1077, 1470, 1471, 1482, 1481, 1239, 1240, 1251, 1250
1078, 1471, 1472, 1483, 1482, 1240, 1241, 1252, 1251
1079, 1472, 1473, 1484, 1483, 1241, 1242, 1253, 1252
1080, 1473, 1474, 1485, 1484, 1242, 1243, 1254, 1253
1081, 1475, 1476, 1487, 1486, 1244, 1245, 1256, 1255
1082, 1476, 1477, 1488, 1487, 1245, 1246, 1257, 1256
1083, 1477, 1478, 1489, 1488, 1246, 1247, 1258, 1257
1084, 1478, 1479, 1490, 1489, 1247, 1248, 1259, 1258
1085, 1479, 1480, 1491, 1490, 1248, 1249, 1260, 1259
1086, 1480, 1481, 1492, 1491, 1249, 1250, 1261, 1260
1087, 1481, 1482, 1493, 1492, 1250, 1251, 1262, 1261
1088, 1482, 1483, 1494, 1493, 1251, 1252, 1263, 1262
1089, 1483, 1484, 1495, 1494, 1252, 1253, 1264, 1263
1090, 1484, 1485, 1496, 1495, 1253, 1254, 1265, 1264
1091, 1486, 1487, 1498, 1497, 1255, 1256, 1267, 1266
1092, 1487, 1488, 1499, 1498, 1256, 1257, 1268, 1267
1093, 1488, 1489, 1500, 1499, 1257, 1258, 1269, 1268
1094, 1489, 1490, 1501, 1500, 1258, 1259, 1270, 1269
1095, 1490, 1491, 1502, 1501, 1259, 1260, 1271, 1270
1096, 1491, 1492, 1503, 1502, 1260, 1261, 1272, 1271
1097, 1492, 1493, 1504, 1503, 1261, 1262, 1273, 1272
1098, 1493, 1494, 1505, 1504, 1262, 1263, 1274, 1273
1099, 1494, 1495, 1506, 1505, 1263, 1264, 1275, 1274
1100, 1495, 1496, 1507, 1506, 1264, 1265, 1276, 1275
1101, 1497, 1498, 1509, 1508, 1266, 1267, 1278, 1277
1102, 1498, 1499, 1510, 1509, 1267, 1268, 1279, 1278
1103, 1499, 1500, 1511, 1510, 1268, 1269, 1280, 1279
1104, 1500, 1501, 1512, 1511, 1269, 1270, 1281, 1280
1105, 1501, 1502, 1513, 1512, 1270, 1271, 1282, 1281
1106, 1502, 1503, 1514, 1513, 1271, 1272, 1283, 1282
1107, 1503, 1504, 1515, 1514, 1272, 1273, 1284, 1283
1108, 1504, 1505, 1516, 1515, 1273, 1274, 1285, 1284
1109, 1505, 1506, 1517, 1516, 1274, 1275, 1286, 1285
1110, 1506, 1507, 1518, 1517, 1275, 1276, 1287, 1286
1111, 1508, 1509, 1520, 1519, 1277, 1278, 1289, 1288
1112, 1509, 1510, 1521, 1520, 1278, 1279, 1290, 1289
1113, 1510, 1511, 1522, 1521, 1279, 1280, 1291, 1290
1114, 1511, 1512, 1523, 1522, 1280, 1281, 1292, 1291
1115, 1512, 1513, 1524, 1523, 1281, 1282, 1293, 1292
1116, 1513, 1514, 1525, 1524, 1282, 1283, 1294, 1293
1117, 1514, 1515, 1526, 1525, 1283, 1284, 1295, 1294
1118, 1515, 1516, 1527, 1526, 1284, 1285, 1296, 1295
1119, 1516, 1517, 1528, 1527, 1285, 1286, 1297, 1296
1120, 1517, 1518, 1529, 1528, 1286, 1287, 1298, 1297
1121, 1519, 1520, 1531, 1530, 1288, 1289, 1300, 1299
1122, 1520, 1521, 1532, 1531, 1289, 1290, 1301, 1300
1123, 1521, 1522, 1533, 1532, 1290, 1291, 1302, 1301
1124, 1522, 1523, 1534, 1533, 1291, 1292, 1303, 1302
1125, 1523, 1524, 1535, 1534, 1292, 1293, 1304, 1303
1126, 1524, 1525, 1536, 1535, 1293, 1294, 1305, 1304
1127, 1525, 1526, 1537, 1536, 1294, 1295, 1306, 1305
1128, 1526, 1527, 1538, 1537, 1295, 1296, 1307, 1306
1129, 1527, 1528, 1539, 1538, 1296, 1297, 1308, 1307
1130, 1528, 1529, 1540, 1539, 1297, 1298, 1309, 1308
1131, 1530, 1531, 1542, 1541, 1299, 1300, 1311, 1310
1132, 1531, 1532, 1543, 1542, 1300, 1301, 1312, 1311
1133, 1532, 1533, 1544, 1543, 1301, 1302, 1313, 1312
1134, 1533, 1534, 1545, 1544, 1302, 1303, 1314, 1313
1135, 1534, 1535, 1546, 1545, 1303, 1304, 1315, 1314
1136, 1535, 1536, 1547, 1546, 1304, 1305, 1316, 1315
1137, 1536, 1537, 1548, 1547, 1305, 1306, 1317, 1316
1138, 1537, 1538, 1549, 1548, 1306, 1307, 1318, 1317
1139, 1538, 1539, 1550, 1549, 1307, 1308, 1319, 1318
1140, 1539, 1540, 1551, 1550, 1308, 1309, 1320, 1319
1141, 1541, 1542, 1553, 1552, 1310, 1311, 1322, 1321
1142, 1542, 1543, 1554, 1553, 1311, 1312, 1323, 1322
1143, 1543, 1544, 1555, 1554, 1312, 1313, 1324, 1323
1144, 1544, 1545, 1556, 1555, 1313, 1314, 1325, 1324
1145, 1545, 1546, 1557, 1556, 1314, 1315, 1326, 1325
1146, 1546, 1547, 1558, 1557, 1315, 1316, 1327, 1326
1147, 1547, 1548, 1559, 1558, 1316, 1317, 1328, 1327
1148, 1548, 1549, 1560, 1559, 1317, 1318, 1329, 1328
1149, 1549, 1550, 1561, 1560, 1318, 1319, 1330, 1329
1150, 1550, 1551, 1562, 1561, 1319, 1320, 1331, 1330
1151, 1552, 1553, 1564, 1563, 1321, 1322, 1333, 1332
1152, 1553, 1554, 1565, 1564, 1322, 1323, 1334, 1333
1153, 1554, 1555, 1566, 1565, 1323, 1324, 1335, 1334
1154, 1555, 1556, 1567, 1566, 1324, 1325, 1336, 1335
1155, 1556, 1557, 1568, 1567, 1325, 1326, 1337, 1336
1156, 1557, 1558, 1569, 1568, 1326, 1327, 1338, 1337
1157, 1558, 1559, 1570, 1569, 1327, 1328, 1339, 1338
1158, 1559, 1560, 1571, 1570, 1328, 1329, 1340, 1339
1159, 1560, 1561, 1572, 1571, 1329, 1330, 1341, 1340
1160, 1561, 1562, 1573, 1572, 1330, 1331, 1342, 1341
1161, 1563, 1564, 1575, 1574, 1332, 1333, 1344, 1343
1162, 1564, 1565, 1576, 1575, 1333, 1334, 1345, 1344
1163, 1565, 1566, 1577, 1576, 1334, 1335, 1346, 1345
1164, 1566, 1567, 1578, 1577, 1335, 1336, 1347, 1346
1165, 1567, 1568, 1579, 1578, 1336, 1337, 1348, 1347
1166, 1568, 1569, 1580, 1579, 1337, 1338, 1349, 1348
1167, 1569, 1570, 1581, 1580, 1338, 1339, 1350, 1349
1168, 1570, 1571, 1582, 1581, 1339, 1340, 1351, 1350
1169, 1571, 1572, 1583, 1582, 1340, 1341, 1352, 1351
1170, 1572, 1573, 1584, 1583, 1341, 1342, 1353, 1352
1171, 1574, 1575, 1586, 1585, 1343, 1344, 1355, 1354
1172, 1575, 1576, 1587, 1586, 1344, 1345, 1356, 1355
1173, 1576, 1577, 1588, 1587, 1345, 1346, 1357, 1356
1174, 1577, 1578, 1589, 1588, 1346, 1347, 1358, 1357
1175, 1578, 1579, 1590, 1589, 1347, 1348, 1359, 1358
1176, 1579, 1580, 1591, 1590, 1348, 1349, 1360, 1359
1177, 1580, 1581, 1592, 1591, 1349, 1350, 1361, 1360
1178, 1581, 1582, 1593, 1592, 1350, 1351, 1362, 1361
1179, 1582, 1583, 1594, 1593, 1351, 1352, 1363, 1362
1180, 1583, 1584, 1595, 1594, 1352, 1353, 1364, 1363
1181, 1585, 1586, 1597, 1596, 1354, 1355, 1366, 1365
1182, 1586, 1587, 1598, 1597, 1355, 1356, 1367, 1366
1183, 1587, 1588, 1599, 1598, 1356, 1357, 1368, 1367
1184, 1588, 1589, 1600, 1599, 1357, 1358, 1369, 1368
1185, 1589, 1590, 1601, 1600, 1358, 1359, 1370, 1369
1186, 1590, 1591, 1602, 1601, 1359, 1360, 1371, 1370
1187, 1591, 1592, 1603, 1602, 1360, 1361, 1372, 1371
1188, 1592, 1593, 1604, 1603, 1361, 1362, 1373, 1372
1189, 1593, 1594, 1605, 1604, 1362, 1363, 1374, 1373
1190, 1594, 1595, 1606, 1605, 1363, 1364, 1375, 1374
1191, 1596, 1597, 1608, 1607, 1365, 1366, 1377, 1376
1192, 1597, 1598, 1609, 1608, 1366, 1367, 1378, 1377
1193, 1598, 1599, 1610, 1609, 1367, 1368, 1379, 1378
1194, 1599, 1600, 1611, 1610, 1368, 1369, 1380, 1379
1195, 1600, 1601, 1612, 1611, 1369, 1370, 1381, 1380
1196, 1601, 1602, 1613, 1612, 1370, 1371, 1382, 1381
1197, 1602, 1603, 1614, 1613, 1371, 1372, 1383, 1382
1198, 1603, 1604, 1615, 1614, 1372, 1373, 1384, 1383
1199, 1604, 1605, 1616, 1615, 1373, 1374, 1385, 1384
1200, 1605, 1606, 1617, 1616, 1374, 1375, 1386, 1385
1201, 1618, 1619, 1630, 1629, 1387, 1388, 1399, 1398
1202, 1619, 1620, 1631, 1630, 1388, 1389, 1400, 1399
1203, 1620, 1621, 1632, 1631, 1389, 1390, 1401, 1400
1204, 1621, 1622, 1633, 1632, 1390, 1391, 1402, 1401
1205, 1622, 1623, 1634, 1633, 1391, 1392, 1403, 1402
1206, 1623, 1624, 1635, 1634, 1392, 1393, 1404, 1403
1207, 1624, 1625, 1636, 1635, 1393, 1394, 1405, 1404
1208, 1625, 1626, 1637, 1636, 1394, 1395, 1406, 1405
1209, 1626, 1627, 1638, 1637, 1395, 1396, 1407, 1406
1210, 1627, 1628, 1639, 1638, 1396, 1397, 1408, 1407
1211, 1629, 1630, 1641, 1640, 1398, 1399, 1410, 1409
1212, 1630, 1631, 1642, 1641, 1399, 1400, 1411, 1410
1213, 1631, 1632, 1643, 1642, 1400, 1401, 1412, 1411
1214, 1632, 1633, 1644, 1643, 1401, 1402, 1413, 1412
1215, 1633, 1634, 1645, 1644, 1402, 1403, 1414, 1413
1216, 1634, 1635, 1646, 1645, 1403, 1404, 1415, 1414
1217, 1635, 1636, 1647, 1646, 1404, 1405, 1416, 1415
1218, 1636, 1637, 1648, 1647, 1405, 1406, 1417, 1416
1219, 1637, 1638, 1649, 1648, 1406, 1407, 1418, 1417
1220, 1638, 1639, 1650, 1649, 1407, 1408, 1419, 1418
1221, 1640, 1641, 1652, 1651, 1409, 1410, 1421, 1420
1222, 1641, 1642, 1653, 1652, 1410, 1411, 1422, 1421
1223, 1642, 1643, 1654, 1653, 1411, 1412, 1423, 1422
1224, 1643, 1644, 1655, 1654, 1412, 1413, 1424, 1423
1225, 1644, 1645, 1656, 1655, 1413, 1414, 1425, 1424
1226, 1645, 1646, 1657, 1656, 1414, 1415, 1426, 1425
1227, 1646, 1647, 1658, 1657, 1415, 1416, 1427, 1426
1228, 1647, 1648, 1659, 1658, 1416, 1417, 1428, 1427
1229, 1648, 1649, 1660, 1659, 1417, 1418, 1429, 1428
1230, 1649, 1650, 1661, 1660, 1418, 1419, 1430, 1429
1231, 1651, 1652, 1663, 1662, 1420, 1421, 1432, 1431
1232, 1652, 1653, 1664, 1663, 1421, 1422, 1433, 1432
1233, 1653, 1654, 1665, 1664, 1422, 1423, 1434, 1433
1234, 1654, 1655, 1666, 1665, 1423, 1424, 1435, 1434
1235, 1655, 1656, 1667, 1666, 1424, 1425, 1436, 1435
1236, 1656, 1657, 1668, 1667, 1425, 1426, 1437, 1436
1237, 1657, 1658, 1669, 1668, 1426, 1427, 1438, 1437
1238, 1658, 1659, 1670, 1669, 1427, 1428, 1439, 1438
1239, 1659, 1660, 1671, 1670, 1428, 1429, 1440, 1439
1240, 1660, 1661, 1672, 1671, 1429, 1430, 1441, 1440
1241, 1662, 1663, 1674, 1673, 1431, 1432, 1443, 1442
1242, 1663, 1664, 1675, 1674, 1432, 1433, 1444, 1443
1243, 1664, 1665, 1676, 1675, 1433, 1434, 1445, 1444
1244, 1665, 1666, 1677, 1676, 1434, 1435, 1446, 1445
1245, 1666, 1667, 1678, 1677, 1435, 1436, 1447, 1446
1246, 1667, 1668, 1679, 1678, 1436, 1437, 1448, 1447
1247, 1668, 1669, 1680, 1679, 1437, 1438, 1449, 1448
1248, 1669, 1670, 1681, 1680, 1438, 1439, 1450, 1449
1249, 1670, 1671, 1682, 1681, 1439, 1440, 1451, 1450
1250, 1671, 1672, 1683, 1682, 1440, 1441, 1452, 1451
1251, 1673, 1674, 1685, 1684, 1442, 1443, 1454, 1453
1252, 1674, 1675, 1686, 1685, 1443, 1444, 1455, 1454
1253, 1675, 1676, 1687, 1686, 1444, 1445, 1456, 1455
1254, 1676, 1677, 1688, 1687, 1445, 1446, 1457, 1456
1255, 1677, 1678, 1689, 1688, 1446, 1447, 1458, 1457
1256, 1678, 1679, 1690, 1689, 1447, 1448, 1459, 1458
1257, 1679, 1680, 1691, 1690, 1448, 1449, 1460, 1459
1258, 1680, 1681, 1692, 1691, 1449, 1450, 1461, 1460
1259, 1681, 1682, 1693, 1692, 1450, 1451, 1462, 1461
1260, 1682, 1683, 1694, 1693, 1451, 1452, 1463, 1462
1261, 1684, 1685, 1696, 1695, 1453, 1454, 1465, 1464
1262, 1685, 1686, 1697, 1696, 1454, 1455, 1466, 1465
1263, 1686, 1687, 1698, 1697, 1455, 1456, 1467, 1466
1264, 1687, 1688, 1699, 1698, 1456, 1457, 1468, 1467
1265, 1688, 1689, 1700, 1699, 1457, 1458, 1469, 1468
1266, 1689, 1690, 1701, 1700, 1458, 1459, 1470, 1469
1267, 1690, 1691, 1702, 1701, 1459, 1460, 1471, 1470
1268, 1691, 1692, 1703, 1702, 1460, 1461, 1472, 1471
1269, 1692, 1693, 1704, 1703, 1461, 1462, 1473, 1472
1270, 1693, 1694, 1705, 1704, 1462, 1463, 1474, 1473
1271, 1695, 1696, 1707, 1706, 1464, 1465, 1476, 1475
1272, 1696, 1697, 1708, 1707, 1465, 1466, 1477, 1476
1273, 1697, 1698, 1709, 1708, 1466, 1467, 1478, 1477
1274, 1698, 1699, 1710, 1709, 1467, 1468, 1479, 1478
1275, 1699, 1700, 1711, 1710, 1468, 1469, 1480, 1479
1276, 1700, 1701, 1712, 1711, 1469, 1470, 1481, 1480
1277, 1701, 1702, 1713, 1712, 1470, 1471, 1482, 1481
1278, 1702, 1703, 1714, 1713, 1471, 1472, 1483, 1482
1279, 1703, 1704, 1715, 1714, 1472, 1473, 1484, 1483
1280, 1704, 1705, 1716, 1715, 1473, 1474, 1485, 1484
1281, 1706, 1707, 1718, 1717, 1475, 1476, 1487, 1486
1282, 1707, 1708, 1719, 1718, 1476, 1477, 1488, 1487
1283, 1708, 1709, 1720, 1719, 1477, 1478, 1489, 1488
1284, 1709, 1710, 1721, 1720, 1478, 1479, 1490, 1489
1285, 1710, 1711, 1722, 1721, 1479, 1480, 1491, 1490
1286, 1711, 1712, 1723, 1722, 1480, 1481, 1492, 1491
1287, 1712, 1713, 1724, 1723, 1481, 1482, 1493, 1492
1288, 1713, 1714, 1725, 1724, 1482, 1483, 1494, 1493
1289, 1714, 1715, 1726, 1725, 1483, 1484, 1495, 1494
1290, 1715, 1716, 1727, 1726, 1484, 1485, 1496, 1495
1291, 1717, 1718, 1729, 1728, 1486, 1487, 1498, 1497
1292, 1718, 1719, 1730, 1729, 1487, 1488, 1499, 1498
1293, 1719, 1720, 1731, 1730, 1488, 1489, 1500, 1499
1294, 1720, 1721, 1732, 1731, 1489, 1490, 1501, 1500
1295, 1721, 1722, 1733, 1732, 1490, 1491, 1502, 1501
1296, 1722, 1723, 1734, 1733, 1491, 1492, 1503, 1502
1297, 1723, 1724, 1735, 1734, 1492, 1493, 1504, 1503
1298, 1724, 1725, 1736, 1735, 1493, 1494, 1505, 1504
1299, 1725, 1726, 1737, 1736, 1494, 1495, 1506, 1505
1300, 1726, 1727, 1738, 1737, 1495, 1496, 1507, 1506
1301, 1728, 1729, 1740, 1739, 1497, 1498, 1509, 1508
1302, 1729, 1730, 1741, 1740, 1498, 1499, 1510, 1509
1303, 1730, 1731, 1742, 1741, 1499, 1500, 1511, 1510
1304, 1731, 1732, 1743, 1742, 1500, 1501, 1512, 1511
1305, 1732, 1733, 1744, 1743, 1501, 1502, 1513, 1512
1306, 1733, 1734, 1745, 1744, 1502, 1503, 1514, 1513
1307, 1734, 1735, 1746, 1745, 1503, 1504, 1515, 1514
1308, 1735, 1736, 1747, 1746, 1504, 1505, 1516, 1515
1309, 1736, 1737, 1748, 1747, 1505, 1506, 1517, 1516
1310, 1737, 1738, 1749, 1748, 1506, 1507, 1518, 1517
1311, 1739, 1740, 1751, 1750, 1508, 1509, 1520, 1519
1312, 1740, 1741, 1752, 1751, 1509, 1510, 1521, 1520
1313, 1741, 1742, 1753, 1752, 1510, 1511, 1522, 1521
1314, 1742, 1743, 1754, 1753, 1511, 1512, 1523, 1522
1315, 1743, 1744, 1755, 1754, 1512, 1513, 1524, 1523
1316, 1744, 1745, 1756, 1755, 1513, 1514, 1525, 1524
1317, 1745, 1746, 1757, 1756, 1514, 1515, 1526, 1525
1318, 1746, 1747, 1758, 1757, 1515, 1516, 1527, 1526
1319, 1747, 1748, 1759, 1758, 1516, 1517, 1528, 1527
1320, 1748, 1749, 1760, 1759, 1517, 1518, 1529, 1528
1321, 1750, 1751, 1762, 1761, 1519, 1520, 1531, 1530
1322, 1751, 1752, 1763, 1762, 1520, 1521, 1532, 1531
1323, 1752, 1753, 1764, 1763, 1521, 1522, 1533, 1532
1324, 1753, 1754, 1765, 1764, 1522, 1523, 1534, 1533
1325, 1754, 1755, 1766, 1765, 1523, 1524, 1535, 1534
1326, 1755, 1756, 1767, 1766, 1524, 1525, 1536, 1535
1327, 1756, 1757, 1768, 1767, 1525, 1526, 1537, 1536
1328, 1757, 1758, 1769, 1768, 1526, 1527, 1538, 1537
1329, 1758, 1759, 1770, 1769, 1527, 1528, 1539, 1538
1330, 1759, 1760, 1771, 1770, 1528, 1529, 1540, 1539
1331, 1761, 1762, 1773, 1772, 1530, 1531, 1542, 1541
1332, 1762, 1763, 1774, 1773, 1531, 1532, 1543, 1542
1333, 1763, 1764, 1775, 1774, 1532, 1533, 1544, 1543
1334, 1764, 1765, 1776, 1775, 1533, 1534, 1545, 1544
1335, 1765, 1766, 1777, 1776, 1534, 1535, 1546, 1545
1336, 1766, 1767, 1778, 1777, 1535, 1536, 1547, 1546
1337, 1767, 1768, 1779, 1778, 1536, 1537, 1548, 1547
1338, 1768, 1769, 1780, 1779, 1537, 1538, 1549, 1548
1339, 1769, 1770, 1781, 1780, 1538, 1539, 1550, 1549
1340, 1770, 1771, 1782, 1781, 1539, 1540, 1551, 1550
1341, 1772, 1773, 1784, 1783, 1541, 1542, 1553, 1552
1342, 1773, 1774, 1785, 1784, 1542, 1543, 1554, 1553
1343, 1774, 1775, 1786, 1785, 1543, 1544, 1555, 1554
1344, 1775, 1776, 1787, 1786, 1544, 1545, 1556, 1555
1345, 1776, 1777, 1788, 1787, 1545, 1546, 1557, 1556
1346, 1777, 1778, 1789, 1788, 1546, 1547, 1558, 1557
1347, 1778, 1779, 1790, 1789, 1547, 1548, 1559, 1558
1348, 1779, 1780, 1791, 1790, 1548, 1549, 1560, 1559
1349, 1780, 1781, 1792, 1791, 1549, 1550, 1561, 1560
1350, 1781, 1782, 1793, 1792, 1550, 1551, 1562, 1561
1351, 1783, 1784, 1795, 1794, 1552, 1553, 1564, 1563
1352, 1784, 1785, 1796, 1795, 1553, 1554, 1565, 1564
1353, 1785, 1786, 1797, 1796, 1554, 1555, 1566, 1565
1354, 1786, 1787, 1798, 1797, 1555, 1556, 1567, 1566
1355, 1787, 1788, 1799, 1798, 1556, 1557, 1568, 1567
1356, 1788, 1789, 1800, 1799, 1557, 1558, 1569, 1568
1357, 1789, 1790, 1801, 1800, 1558, 1559, 1570, 1569
1358, 1790, 1791, 1802, 1801, 1559, 1560, 1571, 1570
1359, 1791, 1792, 1803, 1802, 1560, 1561, 1572, 1571
1360, 1792, 1793, 1804, 1803, 1561, 1562, 1573, 1572
1361, 1794, 1795, 1806, 1805, 1563, 1564, 1575, 1574
1362, 1795, 1796, 1807, 1806, 1564, 1565, 1576, 1575
1363, 1796, 1797, 1808, 1807, 1565, 1566, 1577, 1576
1364, 1797, 1798, 1809, 1808, 1566, 1567, 1578, 1577
1365, 1798, 1799, 1810, 1809, 1567, 1568, 1579, 1578
1366, 1799, 1800, 1811, 1810, 1568, 1569, 1580, 1579
1367, 1800, 1801, 1812, 1811, 1569, 1570, 1581, 1580
1368, 1801, 1802, 1813, 1812, 1570, 1571, 1582, 1581
1369, 1802, 1803, 1814, 1813, 1571, 1572, 1583, 1582
1370, 1803, 1804, 1815, 1814, 1572, 1573, 1584, 1583
1371, 1805, 1806, 1817, 1816, 1574, 1575, 1586, 1585
1372, 1806, 1807, 1818, 1817, 1575, 1576, 1587, 1586
1373, 1807, 1808, 1819, 1818, 1576, 1577, 1588, 1587
1374, 1808, 1809, 1820, 1819, 1577, 1578, 1589, 1588
1375, 1809, 1810, 1821, 1820, 1578, 1579, 1590, 1589
1376, 1810, 1811, 1822, 1821, 1579, 1580, 1591, 1590
1377, 1811, 1812, 1823, 1822, 1580, 1581, 1592, 1591
1378, 1812, 1813, 1824, 1823, 1581, 1582, 1593, 1592
1379, 1813, 1814, 1825, 1824, 1582, 1583, 1594, 1593
1380, 1814, 1815, 1826, 1825, 1583, 1584, 1595, 1594
1381, 1816, 1817, 1828, 1827, 1585, 1586, 1597, 1596
1382, 1817, 1818, 1829, 1828, 1586, 1587, 1598, 1597
1383, 1818, 1819, 1830, 1829, 1587, 1588, 1599, 1598
1384, 1819, 1820, 1831, 1830, 1588, 1589, 1600, 1599
1385, 1820, 1821, 1832, 1831, 1589, 1590, 1601, 1600
1386, 1821, 1822, 1833, 1832, 1590, 1591, 1602, 1601
1387, 1822, 1823, 1834, 1833, 1591, 1592, 1603, 1602
1388, 1823, 1824, 1835, 1834, 1592, 1593, 1604, 1603
1389, 1824, 1825, 1836, 1835, 1593, 1594, 1605, 1604
1390, 1825, 1826, 1837, 1836, 1594, 1595, 1606, 1605
1391, 1827, 1828, 1839, 1838, 1596, 1597, 1608, 1607
1392, 1828, 1829, 1840, 1839, 1597, 1598, 1609, 1608
1393, 1829, 1830, 1841, 1840, 1598, 1599, 1610, 1609
1394, 1830, 1831, 1842, 1841, 1599, 1600, 1611, 1610
1395, 1831, 1832, 1843, 1842, 1600, 1601, 1612, 1611
1396, 1832, 1833, 1844, 1843, 1601, 1602, 1613, 1612
1397, 1833, 1834, 1845, 1844, 1602, 1603, 1614, 1613
1398, 1834, 1835, 1846, 1845, 1603, 1604, 1615, 1614
1399, 1835, 1836, 1847, 1846, 1604, 1605, 1616, 1615
1400, 1836, 1837, 1848, 1847, 1605, 1606, 1617, 1616
1401, 1849, 1850, 1861, 1860, 1618, 1619, 1630, 1629
1402, 1850, 1851, 1862, 1861, 1619, 1620, 1631, 1630
1403, 1851, 1852, 1863, 1862, 1620, 1621, 1632, 1631
1404, 1852, 1853, 1864, 1863, 1621, 1622, 1633, 1632
1405, 1853, 1854, 1865, 1864, 1622, 1623, 1634, 1633
1406, 1854, 1855, 1866, 1865, 1623, 1624, 1635, 1634
1407, 1855, 1856, 1867, 1866, 1624, 1625, 1636, 1635
1408, 1856, 1857, 1868, 1867, 1625, 1626, 1637, 1636
1409, 1857, 1858, 1869, 1868, 1626, 1627, 1638, 1637
1410, 1858, 1859, 1870, 1869, 1627, 1628, 1639, 1638
1411, 1860, 1861, 1872, 1871, 1629, 1630, 1641, 1640
1412, 1861, 1862, 1873, 1872, 1630, 1631, 1642, 1641
1413, 1862, 1863, 1874, 1873, 1631, 1632, 1643, 1642
1414, 1863, 1864, 1875, 1874, 1632, 1633, 1644, 1643
1415, 1864, 1865, 1876, 1875, 1633, 1634, 1645, 1644
1416, 1865, 1866, 1877, 1876, 1634, 1635, 1646, 1645
1417, 1866, 1867, 1878, 1877, 1635, 1636, 1647, 1646
1418, 1867, 1868, 1879, 1878, 1636, 1637, 1648, 1647
1419, 1868, 1869, 1880, 1879, 1637, 1638, 1649, 1648
1420, 1869, 1870, 1881, 1880, 1638, 1639, 1650, 1649
1421, 1871, 1872, 1883, 1882, 1640, 1641, 1652, 1651
1422, 1872, 1873, 1884, 1883, 1641, 1642, 1653, 1652
1423, 1873, 1874, 1885, 1884, 1642, 1643, 1654, 1653
1424, 1874, 1875, 1886, 1885, 1643, 1644, 1655, 1654
1425, 1875, 1876, 1887, 1886, 1644, 1645, 1656, 1655
1426, 1876, 1877, 1888, 1887, 1645, 1646, 1657, 1656
1427, 1877, 1878, 1889, 1888, 1646, 1647, 1658, 1657
1428, 1878, 1879, 1890, 1889, 1647, 1648, 1659, 1658
1429, 1879, 1880, 1891, 1890, 1648, 1649, 1660, 1659
1430, 1880, 1881, 1892, 1891, 1649, 1650, 1661, 1660
1431, 1882, 1883, 1894, 1893, 1651, 1652, 1663, 1662
1432, 1883, 1884, 1895, 1894, 1652, 1653, 1664, 1663
1433, 1884, 1885, 1896, 1895, 1653, 1654, 1665, 1664
1434, 1885, 1886, 1897, 1896, 1654, 1655, 1666, 1665
1435, 1886, 1887, 1898, 1897, 1655, 1656, 1667, 1666
1436, 1887, 1888, 1899, 1898, 1656, 1657, 1668, 1667
1437, 1888, 1889, 1900, 1899, 1657, 1658, 1669, 1668
1438, 1889, 1890, 1901, 1900, 1658, 1659, 1670, 1669
1439, 1890, 1891, 1902, 1901, 1659, 1660, 1671, 1670
1440, 1891, 1892, 1903, 1902, 1660, 1661, 1672, 1671
1441, 1893, 1894, 1905, 1904, 1662, 1663, 1674, 1673
1442, 1894, 1895, 1906, 1905, 1663, 1664, 1675, 1674
1443, 1895, 1896, 1907, 1906, 1664, 1665, 1676, 1675
1444, 1896, 1897, 1908, 1907, 1665, 1666, 1677, 1676
1445, 1897, 1898, 1909, 1908, 1666, 1667, 1678, 1677
1446, 1898, 1899, 1910, 1909, 1667, 1668, 1679, 1678
1447, 1899, 1900, 1911, 1910, 1668, 1669, 1680, 1679
1448, 1900, 1901, 1912, 1911, 1669, 1670, 1681, 1680
1449, 1901, 1902, 1913, 1912, 1670, 1671, 1682, 1681
1450, 1902, 1903, 1914, 1913, 1671, 1672, 1683, 1682
1451, 1904, 1905, 1916, 1915, 1673, 1674, 1685, 1684
1452, 1905, 1906, 1917, 1916, 1674, 1675, 1686, 1685
1453, 1906, 1907, 1918, 1917, 1675, 1676, 1687, 1686
1454, 1907, 1908, 1919, 1918, 1676, 1677, 1688, 1687
1455, 1908, 1909, 1920, 1919, 1677, 1678, 1689, 1688
1456, 1909, 1910, 1921, 1920, 1678, 1679, 1690, 1689
1457, 1910, 1911, 1922, 1921, 1679, 1680, 1691, 1690
1458, 1911, 1912, 1923, 1922, 1680, 1681, 1692, 1691
1459, 1912, 1913, 1924, 1923, 1681, 1682, 1693, 1692
1460, 1913, 1914, 1925, 1924, 1682, 1683, 1694, 1693
1461, 1915, 1916, 1927, 1926, 1684, 1685, 1696, 1695
1462, 1916, 1917, 1928, 1927, 1685, 1686, 1697, 1696
1463, 1917, 1918, 1929, 1928, 1686, 1687, 1698, 1697
1464, 1918, 1919, 1930, 1929, 1687, 1688, 1699, 1698
1465, 1919, 1920, 1931, 1930, 1688, 1689, 1700, 1699
1466, 1920, 1921, 1932, 1931, 1689, 1690, 1701, 1700
1467, 1921, 1922, 1933, 1932, 1690, 1691, 1702, 1701
1468, 1922, 1923, 1934, 1933, 1691, 1692, 1703, 1702
1469, 1923, 1924, 1935, 1934, 1692, 1693, 1704, 1703
1470, 1924, 1925, 1936, 1935, 1693, 1694, 1705, 1704
1471, 1926, 1927, 1938, 1937, 1695, 1696, 1707, 1706
1472, 1927, 1928, 1939, 1938, 1696, 1697, 1708, 1707
1473, 1928, 1929, 1940, 1939, 1697, 1698, 1709, 1708
1474, 1929, 1930, 1941, 1940, 1698, 1699, 1710, 1709
1475, 1930, 1931, 1942, 1941, 1699, 1700, 1711, 1710
1476, 1931, 1932, 1943, 1942, 1700, 1701, 1712, 1711
1477, 1932, 1933, 1944, 1943, 1701, 1702, 1713, 1712
1478, 1933, 1934, 1945, 1944, 1702, 1703, 1714, 1713
1479, 1934, 1935, 1946, 1945, 1703, 1704, 1715, 1714
1480, 1935, 1936, 1947, 1946, 1704, 1705, 1716, 1715
1481, 1937, 1938, 1949, 1948, 1706, 1707, 1718, 1717
1482, 1938, 1939, 1950, 1949, 1707, 1708, 1719, 1718
1483, 1939, 1940, 1951, 1950, 1708, 1709, 1720, 1719
1484, 1940, 1941, 1952, 1951, 1709, 1710, 1721, 1720
1485, 1941, 1942, 1953, 1952, 1710, 1711, 1722, 1721
1486, 1942, 1943, 1954, 1953, 1711, 1712, 1723, 1722
1487, 1943, 1944, 1955, 1954, 1712, 1713, 1724, 1723
1488, 1944, 1945, 1956, 1955, 1713, 1714, 1725, 1724
1489, 1945, 1946, 1957, 1956, 1714, 1715, 1726, 1725
1490, 1946, 1947, 1958, 1957, 1715, 1716, 1727, 1726
1491, 1948, 1949, 1960, 1959, 1717, 1718, 1729, 1728
1492, 1949, 1950, 1961, 1960, 1718, 1719, 1730, 1729
1493, 1950, 1951, 1962, 1961, 1719, 1720, 1731, 1730
1494, 1951, 1952, 1963, 1962, 1720, 1721, 1732, 1731
1495, 1952, 1953, 1964, 1963, 1721, 1722, 1733, 1732
1496, 1953, 1954, 1965, 1964, 1722, 1723, 1734, 1733
1497, 1954, 1955, 1966, 1965, 1723, 1724, 1735, 1734
1498, 1955, 1956, 1967, 1966, 1724, 1725, 1736, 1735
1499, 1956, 1957, 1968, 1967, 1725, 1726, 1737, 1736
1500, 1957, 1958, 1969, 1968, 1726, 1727, 1738, 1737
1501, 1959, 1960, 1971, 1970, 1728, 1729, 1740, 1739
1502, 1960, 1961, 1972, 1971, 1729, 1730, 1741, 1740
1503, 1961, 1962, 1973, 1972, 1730, 1731, 1742, 1741
1504, 1962, 1963, 1974, 1973, 1731, 1732, 1743, 1742
1505, 1963, 1964, 1975, 1974, 1732, 1733, 1744, 1743
1506, 1964, 1965, 1976, 1975, 1733, 1734, 1745, 1744
1507, 1965, 1966, 1977, 1976, 1734, 1735, 1746, 1745
1508, 1966, 1967, 1978, 1977, 1735, 1736, 1747, 1746
1509, 1967, 1968, 1979, 1978, 1736, 1737, 1748, 1747
1510, 1968, 1969, 1980, 1979, 1737, 1738, 1749, 1748
1511, 1970, 1971, 1982, 1981, 1739, 1740, 1751, 1750
1512, 1971, 1972, 1983, 1982, 1740, 1741, 1752, 1751
1513, 1972, 1973, 1984, 1983, 1741, 1742, 1753, 1752
1514, 1973, 1974, 1985, 1984, 1742, 1743, 1754, 1753
1515, 1974, 1975, 1986, 1985, 1743, 1744, 1755, 1754
1516, 1975, 1976, 1987, 1986, 1744, 1745, 1756, 1755
1517, 1976, 1977, 1988, 1987, 1745, 1746, 1757, 1756
1518, 1977, 1978, 1989, 1988, 1746, 1747, 1758, 1757
1519, 1978, 1979, 1990, 1989, 1747, 1748, 1759, 1758
1520, 1979, 1980, 1991, 1990, 1748, 1749, 1760, 1759
1521, 1981, 1982, 1993, 1992, 1750, 1751, 1762, 1761
1522, 1982, 1983, 1994, 1993, 1751, 1752, 1763, 1762
1523, 1983, 1984, 1995, 1994, 1752, 1753, 1764, 1763
1524, 1984, 1985, 1996, 1995, 1753, 1754, 1765, 1764
1525, 1985, 1986, 1997, 1996, 1754, 1755, 1766, 1765
1526, 1986, 1987, 1998, 1997, 1755, 1756, 1767, 1766
1527, 1987, 1988, 1999, 1998, 1756, 1757, 1768, 1767
1528, 1988, 1989, 2000, 1999, 1757, 1758, 1769, 1768
1529, 1989, 1990, 2001, 2000, 1758, 1759, 1770, 1769
1530, 1990, 1991, 2002, 2001, 1759, 1760, 1771, 1770
1531, 1992, 1993, 2004, 2003, 1761, 1762, 1773, 1772
1532, 1993, 1994, 2005, 2004, 1762, 1763, 1774, 1773
1533, 1994, 1995, 2006, 2005, 1763, 1764, 1775, 1774
1534, 1995, 1996, 2007, 2006, 1764, 1765, 1776, 1775
1535, 1996, 1997, 2008, 2007, 1765, 1766, 1777, 1776
1536, 1997, 1998, 2009, 2008, 1766, 1767, 1778, 1777
1537, 1998, 1999, 2010, 2009, 1767, 1768, 1779, 1778
1538, 1999, 2000, 2011, 2010, 1768, 1769, 1780, 1779
1539, 2000, 2001, 2012, 2011, 1769, 1770, 1781, 1780
1540, 2001, 2002, 2013, 2012, 1770, 1771, 1782, 1781
1541, 2003, 2004, 2015, 2014, 1772, 1773, 1784, 1783
1542, 2004, 2005, 2016, 2015, 1773, 1774, 1785, 1784
1543, 2005, 2006, 2017, 2016, 1774, 1775, 1786, 1785
1544, 2006, 2007, 2018, 2017, 1775, 1776, 1787, 1786
1545, 2007, 2008, 2019, 2018, 1776, 1777, 1788, 1787
1546, 2008, 2009, 2020, 2019, 1777, 1778, 1789, 1788
1547, 2009, 2010, 2021, 2020, 1778, 1779, 1790, 1789
1548, 2010, 2011, 2022, 2021, 1779, 1780, 1791, 1790
1549, 2011, 2012, 2023, 2022, 1780, 1781, 1792, 1791
1550, 2012, 2013, 2024, 2023, 1781, 1782, 1793, 1792
1551, 2014, 2015, 2026, 2025, 1783, 1784, 1795, 1794
1552, 2015, 2016, 2027, 2026, 1784, 1785, 1796, 1795
1553, 2016, 2017, 2028, 2027, 1785, 1786, 1797, 1796
1554, 2017, 2018, 2029, 2028, 1786, 1787, 1798, 1797
1555, 2018, 2019, 2030, 2029, 1787, 1788, 1799, 1798
1556, 2019, 2020, 2031, 2030, 1788, 1789, 1800, 1799
1557, 2020, 2021, 2032, 2031, 1789, 1790, 1801, 1800
1558, 2021, 2022, 2033, 2032, 1790, 1791, 1802, 1801
1559, 2022, 2023, 2034, 2033, 1791, 1792, 1803, 1802
1560, 2023, 2024, 2035, 2034, 1792, 1793, 1804, 1803
1561, 2025, 2026, 2037, 2036, 1794, 1795, 1806, 1805
1562, 2026, 2027, 2038, 2037, 1795, 1796, 1807, 1806
1563, 2027, 2028, 2039, 2038, 1796, 1797, 1808, 1807
1564, 2028, 2029, 2040, 2039, 1797, 1798, 1809, 1808
1565, 2029, 2030, 2041, 2040, 1798, 1799, 1810, 1809
1566, 2030, 2031, 2042, 2041, 1799, 1800, 1811, 1810
1567, 2031, 2032, 2043, 2042, 1800, 1801, 1812, 1811
1568, 2032, 2033, 2044, 2043, 1801, 1802, 1813, 1812
1569, 2033, 2034, 2045, 2044, 1802, 1803, 1814, 1813
1570, 2034, 2035, 2046, 2045, 1803, 1804, 1815, 1814
1571, 2036, 2037, 2048, 2047, 1805, 1806, 1817, 1816
1572, 2037, 2038, 2049, 2048, 1806, 1807, 1818, 1817
1573, 2038, 2039, 2050, 2049, 1807, 1808, 1819, 1818
1574, 2039, 2040, 2051, 2050, 1808, 1809, 1820, 1819
1575, 2040, 2041, 2052, 2051, 1809, 1810, 1821, 1820
1576, 2041, 2042, 2053, 2052, 1810, 1811, 1822, 1821
1577, 2042, 2043, 2054, 2053, 1811, 1812, 1823, 1822
1578, 2043, 2044, 2055, 2054, 1812, 1813, 1824, 1823
1579, 2044, 2045, 2056, 2055, 1813, 1814, 1825, 1824
1580, 2045, 2046, 2057, 2056, 1814, 1815, 1826, 1825
1581, 2047, 2048, 2059, 2058, 1816, 1817, 1828, 1827
1582, 2048, 2049, 2060, 2059, 1817, 1818, 1829, 1828
1583, 2049, 2050, 2061, 2060, 1818, 1819, 1830, 1829
1584, 2050, 2051, 2062, 2061, 1819, 1820, 1831, 1830
1585, 2051, 2052, 2063, 2062, 1820, 1821, 1832, 1831
1586, 2052, 2053, 2064, 2063, 1821, 1822, 1833, 1832
1587, 2053, 2054, 2065, 2064, 1822, 1823, 1834, 1833
1588, 2054, 2055, 2066, 2065, 1823, 1824, 1835, 1834
1589, 2055, 2056, 2067, 2066, 1824, 1825, 1836, 1835
1590, 2056, 2057, 2068, 2067, 1825, 1826, 1837, 1836
1591, 2058, 2059, 2070, 2069, 1827, 1828, 1839, 1838
1592, 2059, 2060, 2071, 2070, 1828, 1829, 1840, 1839
1593, 2060, 2061, 2072, 2071, 1829, 1830, 1841, 1840
1594, 2061, 2062, 2073, 2072, 1830, 1831, 1842, 1841
1595, 2062, 2063, 2074, 2073, 1831, 1832, 1843, 1842
1596, 2063, 2064, 2075, 2074, 1832, 1833, 1844, 1843
1597, 2064, 2065, 2076, 2075, 1833, 1834, 1845, 1844
1598, 2065, 2066, 2077, 2076, 1834, 1835, 1846, 1845
1599, 2066, 2067, 2078, 2077, 1835, 1836, 1847, 1846
1600, 2067, 2068, 2079, 2078, 1836, 1837, 1848, 1847
1601, 2080, 2081, 2092, 2091, 1849, 1850, 1861, 1860
1602, 2081, 2082, 2093, 2092, 1850, 1851, 1862, 1861
1603, 2082, 2083, 2094, 2093, 1851, 1852, 1863, 1862
1604, 2083, 2084, 2095, 2094, 1852, 1853, 1864, 1863
1605, 2084, 2085, 2096, 2095, 1853, 1854, 1865, 1864
1606, 2085, 2086, 2097, 2096, 1854, 1855, 1866, 1865
1607, 2086, 2087, 2098, 2097, 1855, 1856, 1867, 1866
1608, 2087, 2088, 2099, 2098, 1856, 1857, 1868, 1867
1609, 2088, 2089, 2100, 2099, 1857, 1858, 1869, 1868
1610, 2089, 2090, 2101, 2100, 1858, 1859, 1870, 1869
1611, 2091, 2092, 2103, 2102, 1860, 1861, 1872, 1871
1612, 2092, 2093, 2104, 2103, 1861, 1862, 1873, 1872
1613, 2093, 2094, 2105, 2104, 1862, 1863, 1874, 1873
1614, 2094, 2095, 2106, 2105, 1863, 1864, 1875, 1874
1615, 2095, 2096, 2107, 2106, 1864, 1865, 1876, 1875
1616, 2096, 2097, 2108, 2107, 1865, 1866, 1877, 1876
1617, 2097, 2098, 2109, 2108, 1866, 1867, 1878, 1877
1618, 2098, 2099, 2110, 2109, 1867, 1868, 1879, 1878
1619, 2099, 2100, 2111, 2110, 1868, 1869, 1880, 1879
1620, 2100, 2101, 2112, 2111, 1869, 1870, 1881, 1880
1621, 2102, 2103, 2114, 2113, 1871, 1872, 1883, 1882
1622, 2103, 2104, 2115, 2114, 1872, 1873, 1884, 1883
1623, 2104, 2105, 2116, 2115, 1873, 1874, 1885, 1884
1624, 2105, 2106, 2117, 2116, 1874, 1875, 1886, 1885
1625, 2106, 2107, 2118, 2117, 1875, 1876, 1887, 1886
1626, 2107, 2108, 2119, 2118, 1876, 1877, 1888, 1887
1627, 2108, 2109, 2120, 2119, 1877, 1878, 1889, 1888
1628, 2109, 2110, 2121, 2120, 1878, 1879, 1890, 1889
1629, 2110, 2111, 2122, 2121, 1879, 1880, 1891, 1890
1630, 2111, 2112, 2123, 2122, 1880, 1881, 1892, 1891
1631, 2113, 2114, 2125, 2124, 1882, 1883, 1894, 1893
1632, 2114, 2115, 2126, 2125, 1883, 1884, 1895, 1894
1633, 2115, 2116, 2127, 2126, 1884, 1885, 1896, 1895
1634, 2116, 2117, 2128, 2127, 1885, 1886, 1897, 1896
1635, 2117, 2118, 2129, 2128, 1886, 1887, 1898, 1897
1636, 2118, 2119, 2130, 2129, 1887, 1888, 1899, 1898
1637, 2119, 2120, 2131, 2130, 1888, 1889, 1900, 1899
1638, 2120, 2121, 2132, 2131, 1889, 1890, 1901, 1900
1639, 2121, 2122, 2133, 2132, 1890, 1891, 1902, 1901
1640, 2122, 2123, 2134, 2133, 1891, 1892, 1903, 1902
1641, 2124, 2125, 2136, 2135, 1893, 1894, 1905, 1904
1642, 2125, 2126, 2137, 2136, 1894, 1895, 1906, 1905
1643, 2126, 2127, 2138, 2137, 1895, 1896, 1907, 1906
1644, 2127, 2128, 2139, 2138, 1896, 1897, 1908, 1907
1645, 2128, 2129, 2140, 2139, 1897, 1898, 1909, 1908
1646, 2129, 2130, 2141, 2140, 1898, 1899, 1910, 1909
1647, 2130, 2131, 2142, 2141, 1899, 1900, 1911, 1910
1648, 2131, 2132, 2143, 2142, 1900, 1901, 1912, 1911
1649, 2132, 2133, 2144, 2143, 1901, 1902, 1913, 1912
1650, 2133, 2134, 2145, 2144, 1902, 1903, 1914, 1913
1651, 2135, 2136, 2147, 2146, 1904, 1905, 1916, 1915
1652, 2136, 2137, 2148, 2147, 1905, 1906, 1917, 1916
1653, 2137, 2138, 2149, 2148, 1906, 1907, 1918, 1917
1654, 2138, 2139, 2150, 2149, 1907, 1908, 1919, 1918
1655, 2139, 2140, 2151, 2150, 1908, 1909, 1920, 1919
1656, 2140, 2141, 2152, 2151, 1909, 1910, 1921, 1920
1657, 2141, 2142, 2153, 2152, 1910, 1911, 1922, 1921
1658, 2142, 2143, 2154, 2153, 1911, 1912, 1923, 1922
1659, 2143, 2144, 2155, 2154, 1912, 1913, 1924, 1923
1660, 2144, 2145, 2156, 2155, 1913, 1914, 1925, 1924
1661, 2146, 2147, 2158, 2157, 1915, 1916, 1927, 1926
1662, 2147, 2148, 2159, 2158, 1916, 1917, 1928, 1927
1663, 2148, 2149, 2160, 2159, 1917, 1918, 1929, 1928
1664, 2149, 2150, 2161, 2160, 1918, 1919, 1930, 1929
1665, 2150, 2151, 2162, 2161, 1919, 1920, 1931, 1930
1666, 2151, 2152, 2163, 2162, 1920, 1921, 1932, 1931
1667, 2152, 2153, 2164, 2163, 1921, 1922, 1933, 1932
1668, 2153, 2154, 2165, 2164, 1922, 1923, 1934, 1933
1669, 2154, 2155, 2166, 2165, 1923, 1924, 1935, 1934
1670, 2155, 2156, 2167, 2166, 1924, 1925, 1936, 1935
1671, 2157, 2158, 2169, 2168, 1926, 1927, 1938, 1937
1672, 2158, 2159, 2170, 2169, 1927, 1928, 1939, 1938
1673, 2159, 2160, 2171, 2170, 1928, 1929, 1940, 1939
1674, 2160, 2161, 2172, 2171, 1929, 1930, 1941, 1940
1675, 2161, 2162, 2173, 2172, 1930, 1931, 1942, 1941
1676, 2162, 2163, 2174, 2173, 1931, 1932, 1943, 1942
1677, 2163, 2164, 2175, 2174, 1932, 1933, 1944, 1943
1678, 2164, 2165, 2176, 2175, 1933, 1934, 1945, 1944
1679, 2165, 2166, 2177, 2176, 1934, 1935, 1946, 1945
1680, 2166, 2167, 2178, 2177, 1935, 1936, 1947, 1946
1681, 2168, 2169, 2180, 2179, 1937, 1938, 1949, 1948
1682, 2169, 2170, 2181, 2180, 1938, 1939, 1950, 1949
1683, 2170, 2171, 2182, 2181, 1939, 1940, 1951, 1950
1684, 2171, 2172, 2183, 2182, 1940, 1941, 1952, 1951
1685, 2172, 2173, 2184, 2183, 1941, 1942, 1953, 1952
1686, 2173, 2174, 2185, 2184, 1942, 1943, 1954, 1953
1687, 2174, 2175, 2186, 2185, 1943, 1944, 1955, 1954
1688, 2175, 2176, 2187, 2186, 1944, 1945, 1956, 1955
1689, 2176, 2177, 2188, 2187, 1945, 1946, 1957, 1956
1690, 2177, 2178, 2189, 2188, 1946, 1947, 1958, 1957
1691, 2179, 2180, 2191, 2190, 1948, 1949, 1960, 1959
1692, 2180, 2181, 2192, 2191, 1949, 1950, 1961, 1960
1693, 2181, 2182, 2193, 2192, 1950, 1951, 1962, 1961
1694, 2182, 2183, 2194, 2193, 1951, 1952, 1963, 1962
1695, 2183, 2184, 2195, 2194, 1952, 1953, 1964, 1963
1696, 2184, 2185, 2196, 2195, 1953, 1954, 1965, 1964
1697, 2185, 2186, 2197, 2196, 1954, 1955, 1966, 1965
1698, 2186, 2187, 2198, 2197, 1955, 1956, 1967, 1966
1699, 2187, 2188, 2199, 2198, 1956, 1957, 1968, 1967
1700, 2188, 2189, 2200, 2199, 1957, 1958, 1969, 1968
1701, 2190, 2191, 2202, 2201, 1959, 1960, 1971, 1970
1702, 2191, 2192, 2203, 2202, 1960, 1961, 1972, 1971
1703, 2192, 2193, 2204, 2203, 1961, 1962, 1973, 1972
1704, 2193, 2194, 2205, 2204, 1962, 1963, 1974, 1973
1705, 2194, 2195, 2206, 2205, 1963, 1964, 1975, 1974
1706, 2195, 2196, 2207, 2206, 1964, 1965, 1976, 1975
1707, 2196, 2197, 2208, 2207, 1965, 1966, 1977, 1976
1708, 2197, 2198, 2209, 2208, 1966, 1967, 1978, 1977
1709, 2198, 2199, 2210, 2209, 1967, 1968, 1979, 1978
1710, 2199, 2200, 2211, 2210, 1968, 1969, 1980, 1979
1711, 2201, 2202, 2213, 2212, 1970, 1971, 1982, 1981
1712, 2202, 2203, 2214, 2213, 1971, 1972, 1983, 1982
1713, 2203, 2204, 2215, 2214, 1972, 1973, 1984, 1983
1714, 2204, 2205, 2216, 2215, 1973, 1974, 1985, 1984
1715, 2205, 2206, 2217, 2216, 1974, 1975, 1986, 1985
1716, 2206, 2207, 2218, 2217, 1975, 1976, 1987, 1986
1717, 2207, 2208, 2219, 2218, 1976, 1977, 1988, 1987
1718, 2208, 2209, 2220, 2219, 1977, 1978, 1989, 1988
1719, 2209, 2210, 2221, 2220, 1978, 1979, 1990, 1989
1720, 2210, 2211, 2222, 2221, 1979, 1980, 1991, 1990
1721, 2212, 2213, 2224, 2223, 1981, 1982, 1993, 1992
1722, 2213, 2214, 2225, 2224, 1982, 1983, 1994, 1993
1723, 2214, 2215, 2226, 2225, 1983, 1984, 1995, 1994
1724, 2215, 2216, 2227, 2226, 1984, 1985, 1996, 1995
1725, 2216, 2217, 2228, 2227, 1985, 1986, 1997, 1996
1726, 2217, 2218, 2229, 2228, 1986, 1987, 1998, 1997
1727, 2218, 2219, 2230, 2229, 1987, 1988, 1999, 1998
1728, 2219, 2220, 2231, 2230, 1988, 1989, 2000, 1999
1729, 2220, 2221, 2232, 2231, 1989, 1990, 2001, 2000
1730, 2221, 2222, 2233, 2232, 1990, 1991, 2002, 2001
1731, 2223, 2224, 2235, 2234, 1992, 1993, 2004, 2003
1732, 2224, 2225, 2236, 2235, 1993, 1994, 2005, 2004
1733, 2225, 2226, 2237, 2236, 1994, 1995, 2006, 2005
1734, 2226, 2227, 2238, 2237, 1995, 1996, 2007, 2006
1735, 2227, 2228, 2239, 2238, 1996, 1997, 2008, 2007
1736, 2228, 2229, 2240, 2239, 1997, 1998, 2009, 2008
1737, 2229, 2230, 2241, 2240, 1998, 1999, 2010, 2009
1738, 2230, 2231, 2242, 2241, 1999, 2000, 2011, 2010
1739, 2231, 2232, 2243, 2242, 2000, 2001, 2012, 2011
1740, 2232, 2233, 2244, 2243, 2001, 2002, 2013, 2012
1741, 2234, 2235, 2246, 2245, 2003, 2004, 2015, 2014
1742, 2235, 2236, 2247, 2246, 2004, 2005, 2016, 2015
1743, 2236, 2237, 2248, 2247, 2005, 2006, 2017, 2016
1744, 2237, 2238, 2249, 2248, 2006, 2007, 2018, 2017
1745, 2238, 2239, 2250, 2249, 2007, 2008, 2019, 2018
1746, 2239, 2240, 2251, 2250, 2008, 2009, 2020, 2019
1747, 2240, 2241, 2252, 2251, 2009, 2010, 2021, 2020
1748, 2241, 2242, 2253, 2252, 2010, 2011, 2022, 2021
1749, 2242, 2243, 2254, 2253, 2011, 2012, 2023, 2022
1750, 2243, 2244, 2255, 2254, 2012, 2013, 2024, 2023
1751, 2245, 2246, 2257, 2256, 2014, 2015, 2026, 2025
1752, 2246, 2247, 2258, 2257, 2015, 2016, 2027, 2026
1753, 2247, 2248, 2259, 2258, 2016, 2017, 2028, 2027
1754, 2248, 2249, 2260, 2259, 2017, 2018, 2029, 2028
1755, 2249, 2250, 2261, 2260, 2018, 2019, 2030, 2029
1756, 2250, 2251, 2262, 2261, 2019, 2020, 2031, 2030
1757, 2251, 2252, 2263, 2262, 2020, 2021, 2032, 2031
1758, 2252, 2253, 2264, 2263, 2021, 2022, 2033, 2032
1759, 2253, 2254, 2265, 2264, 2022, 2023, 2034, 2033
1760, 2254, 2255, 2266, 2265, 2023, 2024, 2035, 2034
1761, 2256, 2257, 2268, 2267, 2025, 2026, 2037, 2036
1762, 2257, 2258, 2269, 2268, 2026, 2027, 2038, 2037
1763, 2258, 2259, 2270, 2269, 2027, 2028, 2039, 2038
1764, 2259, 2260, 2271, 2270, 2028, 2029, 2040, 2039
1765, 2260, 2261, 2272, 2271, 2029, 2030, 2041, 2040
1766, 2261, 2262, 2273, 2272, 2030, 2031, 2042, 2041
1767, 2262, 2263, 2274, 2273, 2031, 2032, 2043, 2042
1768, 2263, 2264, 2275, 2274, 2032, 2033, 2044, 2043
1769, 2264, 2265, 2276, 2275, 2033, 2034, 2045, 2044
1770, 2265, 2266, 2277, 2276, 2034, 2035, 2046, 2045
1771, 2267, 2268, 2279, 2278, 2036, 2037, 2048, 2047
1772, 2268, 2269, 2280, 2279, 2037, 2038, 2049, 2048
1773, 2269, 2270, 2281, 2280, 2038, 2039, 2050, 2049
1774, 2270, 2271, 2282, 2281, 2039, 2040, 2051, 2050
1775, 2271, 2272, 2283, 2282, 2040, 2041, 2052, 2051
1776, 2272, 2273, 2284, 2283, 2041, 2042, 2053, 2052
1777, 2273, 2274, 2285, 2284, 2042, 2043, 2054, 2053
1778, 2274, 2275, 2286, 2285, 2043, 2044, 2055, 2054
1779, 2275, 2276, 2287, 2286, 2044, 2045, 2056, 2055
1780, 2276, 2277, 2288, 2287, 2045, 2046, 2057, 2056
1781, 2278, 2279, 2290, 2289, 2047, 2048, 2059, 2058
1782, 2279, 2280, 2291, 2290, 2048, 2049, 2060, 2059
1783, 2280, 2281, 2292, 2291, 2049, 2050, 2061, 2060
1784, 2281, 2282, 2293, 2292, 2050, 2051, 2062, 2061
1785, 2282, 2283, 2294, 2293, 2051, 2052, 2063, 2062
1786, 2283, 2284, 2295, 2294, 2052, 2053, 2064, 2063
1787, 2284, 2285, 2296, 2295, 2053, 2054, 2065, 2064
1788, 2285, 2286, 2297, 2296, 2054, 2055, 2066, 2065
1789, 2286, 2287, 2298, 2297, 2055, 2056, 2067, 2066
1790, 2287, 2288, 2299, 2298, 2056, 2057, 2068, 2067
1791, 2289, 2290, 2301, 2300, 2058, 2059, 2070, 2069
1792, 2290, 2291, 2302, 2301, 2059, 2060, 2071, 2070
1793, 2291, 2292, 2303, 2302, 2060, 2061, 2072, 2071
1794, 2292, 2293, 2304, 2303, 2061, 2062, 2073, 2072
1795, 2293, 2294, 2305, 2304, 2062, 2063, 2074, 2073
1796, 2294, 2295, 2306, 2305, 2063, 2064, 2075, 2074
1797, 2295, 2296, 2307, 2306, 2064, 2065, 2076, 2075
1798, 2296, 2297, 2308, 2307, 2065, 2066, 2077, 2076
1799, 2297, 2298, 2309, 2308, 2066, 2067, 2078, 2077
1800, 2298, 2299, 2310, 2309, 2067, 2068, 2079, 2078
1801, 2311, 2312, 2323, 2322, 2080, 2081, 2092, 2091
1802, 2312, 2313, 2324, 2323, 2081, 2082, 2093, 2092
1803, 2313, 2314, 2325, 2324, 2082, 2083, 2094, 2093
1804, 2314, 2315, 2326, 2325, 2083, 2084, 2095, 2094
1805, 2315, 2316, 2327, 2326, 2084, 2085, 2096, 2095
1806, 2316, 2317, 2328, 2327, 2085, 2086, 2097, 2096
1807, 2317, 2318, 2329, 2328, 2086, 2087, 2098, 2097
1808, 2318, 2319, 2330, 2329, 2087, 2088, 2099, 2098
1809, 2319, 2320, 2331, 2330, 2088, 2089, 2100, 2099
1810, 2320, 2321, 2332, 2331, 2089, 2090, 2101, 2100
1811, 2322, 2323, 2334, 2333, 2091, 2092, 2103, 2102
1812, 2323, 2324, 2335, 2334, 2092, 2093, 2104, 2103
1813, 2324, 2325, 2336, 2335, 2093, 2094, 2105, 2104
1814, 2325, 2326, 2337, 2336, 2094, 2095, 2106, 2105
1815, 2326, 2327, 2338, 2337, 2095, 2096, 2107, 2106
1816, 2327, 2328, 2339, 2338, 2096, 2097, 2108, 2107
1817, 2328, 2329, 2340, 2339, 2097, 2098, 2109, 2108
1818, 2329, 2330, 2341, 2340, 2098, 2099, 2110, 2109
1819, 2330, 2331, 2342, 2341, 2099, 2100, 2111, 2110
1820, 2331, 2332, 2343, 2342, 2100, 2101, 2112, 2111
1821, 2333, 2334, 2345, 2344, 2102, 2103, 2114, 2113
1822, 2334, 2335, 2346, 2345, 2103, 2104, 2115, 2114
1823, 2335, 2336, 2347, 2346, 2104, 2105, 2116, 2115
1824, 2336, 2337, 2348, 2347, 2105, 2106, 2117, 2116
1825, 2337, 2338, 2349, 2348, 2106, 2107, 2118, 2117
1826, 2338, 2339, 2350, 2349, 2107, 2108, 2119, 2118
1827, 2339, 2340, 2351, 2350, 2108, 2109, 2120, 2119
1828, 2340, 2341, 2352, 2351, 2109, 2110, 2121, 2120
1829, 2341, 2342, 2353, 2352, 2110, 2111, 2122, 2121
1830, 2342, 2343, 2354, 2353, 2111, 2112, 2123, 2122
1831, 2344, 2345, 2356, 2355, 2113, 2114, 2125, 2124
1832, 2345, 2346, 2357, 2356, 2114, 2115, 2126, 2125
1833, 2346, 2347, 2358, 2357, 2115, 2116, 2127, 2126
1834, 2347, 2348, 2359, 2358, 2116, 2117, 2128, 2127
1835, 2348, 2349, 2360, 2359, 2117, 2118, 2129, 2128
1836, 2349, 2350, 2361, 2360, 2118, 2119, 2130, 2129
1837, 2350, 2351, 2362, 2361, 2119, 2120, 2131, 2130
1838, 2351, 2352, 2363, 2362, 2120, 2121, 2132, 2131
1839, 2352, 2353, 2364, 2363, 2121, 2122, 2133, 2132
1840, 2353, 2354, 2365, 2364, 2122, 2123, 2134, 2133
1841, 2355, 2356, 2367, 2366, 2124, 2125, 2136, 2135
1842, 2356, 2357, 2368, 2367, 2125, 2126, 2137, 2136
1843, 2357, 2358, 2369, 2368, 2126, 2127, 2138, 2137
1844, 2358, 2359, 2370, 2369, 2127, 2128, 2139, 2138
1845, 2359, 2360, 2371, 2370, 2128, 2129, 2140, 2139
1846, 2360, 2361, 2372, 2371, 2129, 2130, 2141, 2140
1847, 2361, 2362, 2373, 2372, 2130, 2131, 2142, 2141
1848, 2362, 2363, 2374, 2373, 2131, 2132, 2143, 2142
1849, 2363, 2364, 2375, 2374, 2132, 2133, 2144, 2143
1850, 2364, 2365, 2376, 2375, 2133, 2134, 2145, 2144
1851, 2366, 2367, 2378, 2377, 2135, 2136, 2147, 2146
1852, 2367, 2368, 2379, 2378, 2136, 2137, 2148, 2147
1853, 2368, 2369, 2380, 2379, 2137, 2138, 2149, 2148
1854, 2369, 2370, 2381, 2380, 2138, 2139, 2150, 2149
1855, 2370, 2371, 2382, 2381, 2139, 2140, 2151, 2150
1856, 2371, 2372, 2383, 2382, 2140, 2141, 2152, 2151
1857, 2372, 2373, 2384, 2383, 2141, 2142, 2153, 2152
1858, 2373, 2374, 2385, 2384, 2142, 2143, 2154, 2153
1859, 2374, 2375, 2386, 2385, 2143, 2144, 2155, 2154
1860, 2375, 2376, 2387, 2386, 2144, 2145, 2156, 2155
1861, 2377, 2378, 2389, 2388, 2146, 2147, 2158, 2157
1862, 2378, 2379, 2390, 2389, 2147, 2148, 2159, 2158
1863, 2379, 2380, 2391, 2390, 2148, 2149, 2160, 2159
1864, 2380, 2381, 2392, 2391, 2149, 2150, 2161, 2160
1865, 2381, 2382, 2393, 2392, 2150, 2151, 2162, 2161
1866, 2382, 2383, 2394, 2393, 2151, 2152, 2163, 2162
1867, 2383, 2384, 2395, 2394, 2152, 2153, 2164, 2163
1868, 2384, 2385, 2396, 2395, 2153, 2154, 2165, 2164
1869, 2385, 2386, 2397, 2396, 2154, 2155, 2166, 2165
1870, 2386, 2387, 2398, 2397, 2155, 2156, 2167, 2166
1871, 2388, 2389, 2400, 2399, 2157, 2158, 2169, 2168
1872, 2389, 2390, 2401, 2400, 2158, 2159, 2170, 2169
1873, 2390, 2391, 2402, 2401, 2159, 2160, 2171, 2170
1874, 2391, 2392, 2403, 2402, 2160, 2161, 2172, 2171
1875, 2392, 2393, 2404, 2403, 2161, 2162, 2173, 2172
1876, 2393, 2394, 2405, 2404, 2162, 2163, 2174, 2173
1877, 2394, 2395, 2406, 2405, 2163, 2164, 2175, 2174
1878, 2395, 2396, 2407, 2406, 2164, 2165, 2176, 2175
1879, 2396, 2397, 2408, 2407, 2165, 2166, 2177, 2176
1880, 2397, 2398, 2409, 2408, 2166, 2167, 2178, 2177
1881, 2399, 2400, 2411, 2410, 2168, 2169, 2180, 2179
1882, 2400, 2401, 2412, 2411, 2169, 2170, 2181, 2180
1883, 2401, 2402, 2413, 2412, 2170, 2171, 2182, 2181
1884, 2402, 2403, 2414, 2413, 2171, 2172, 2183, 2182
1885, 2403, 2404, 2415, 2414, 2172, 2173, 2184, 2183
1886, 2404, 2405, 2416, 2415, 2173, 2174, 2185, 2184
1887, 2405, 2406, 2417, 2416, 2174, 2175, 2186, 2185
1888, 2406, 2407, 2418, 2417, 2175, 2176, 2187, 2186
1889, 2407, 2408, 2419, 2418, 2176, 2177, 2188, 2187
1890, 2408, 2409, 2420, 2419, 2177, 2178, 2189, 2188
1891, 2410, 2411, 2422, 2421, 2179, 2180, 2191, 2190
1892, 2411, 2412, 2423, 2422, 2180, 2181, 2192, 2191
1893, 2412, 2413, 2424, 2423, 2181, 2182, 2193, 2192
1894, 2413, 2414, 2425, 2424, 2182, 2183, 2194, 2193
1895, 2414, 2415, 2426, 2425, 2183, 2184, 2195, 2194
1896, 2415, 2416, 2427, 2426, 2184, 2185, 2196, 2195
1897, 2416, 2417, 2428, 2427, 2185, 2186, 2197, 2196
1898, 2417, 2418, 2429, 2428, 2186, 2187, 2198, 2197
1899, 2418, 2419, 2430, 2429, 2187, 2188, 2199, 2198
1900, 2419, 2420, 2431, 2430, 2188, 2189, 2200, 2199
1901, 2421, 2422, 2433, 2432, 2190, 2191, 2202, 2201
1902, 2422, 2423, 2434, 2433, 2191, 2192, 2203, 2202
1903, 2423, 2424, 2435, 2434, 2192, 2193, 2204, 2203
1904, 2424, 2425, 2436, 2435, 2193, 2194, 2205, 2204
1905, 2425, 2426, 2437, 2436, 2194, 2195, 2206, 2205
1906, 2426, 2427, 2438, 2437, 2195, 2196, 2207, 2206
1907, 2427, 2428, 2439, 2438, 2196, 2197, 2208, 2207
1908, 2428, 2429, 2440, 2439, 2197, 2198, 2209, 2208
1909, 2429, 2430, 2441, 2440, 2198, 2199, 2210, 2209
1910, 2430, 2431, 2442, 2441, 2199, 2200, 2211, 2210
1911, 2432, 2433, 2444, 2443, 2201, 2202, 2213, 2212
1912, 2433, 2434, 2445, 2444, 2202, 2203, 2214, 2213
1913, 2434, 2435, 2446, 2445, 2203, 2204, 2215, 2214
1914, 2435, 2436, 2447, 2446, 2204, 2205, 2216, 2215
1915, 2436, 2437, 2448, 2447, 2205, 2206, 2217, 2216
1916, 2437, 2438, 2449, 2448, 2206, 2207, 2218, 2217
1917, 2438, 2439, 2450, 2449, 2207, 2208, 2219, 2218
1918, 2439, 2440, 2451, 2450, 2208, 2209, 2220, 2219
1919, 2440, 2441, 2452, 2451, 2209, 2210, 2221, 2220
1920, 2441, 2442, 2453, 2452, 2210, 2211, 2222, 2221
1921, 2443, 2444, 2455, 2454, 2212, 2213, 2224, 2223
1922, 2444, 2445, 2456, 2455, 2213, 2214, 2225, 2224
1923, 2445, 2446, 2457, 2456, 2214, 2215, 2226, 2225
1924, 2446, 2447, 2458, 2457, 2215, 2216, 2227, 2226
1925, 2447, 2448, 2459, 2458, 2216, 2217, 2228, 2227
1926, 2448, 2449, 2460, 2459, 2217, 2218, 2229, 2228
1927, 2449, 2450, 2461, 2460, 2218, 2219, 2230, 2229
1928, 2450, 2451, 2462, 2461, 2219, 2220, 2231, 2230
1929, 2451, 2452, 2463, 2462, 2220, 2221, 2232, 2231
1930, 2452, 2453, 2464, 2463, 2221, 2222, 2233, 2232
1931, 2454, 2455, 2466, 2465, 2223, 2224, 2235, 2234
1932, 2455, 2456, 2467, 2466, 2224, 2225, 2236, 2235
1933, 2456, 2457, 2468, 2467, 2225, 2226, 2237, 2236
1934, 2457, 2458, 2469, 2468, 2226, 2227, 2238, 2237
1935, 2458, 2459, 2470, 2469, 2227, 2228, 2239, 2238
1936, 2459, 2460, 2471, 2470, 2228, 2229, 2240, 2239
1937, 2460, 2461, 2472, 2471, 2229, 2230, 2241, 2240
1938, 2461, 2462, 2473, 2472, 2230, 2231, 2242, 2241
1939, 2462, 2463, 2474, 2473, 2231, 2232, 2243, 2242
1940, 2463, 2464, 2475, 2474, 2232, 2233, 2244, 2243
1941, 2465, 2466, 2477, 2476, 2234, 2235, 2246, 2245
1942, 2466, 2467, 2478, 2477, 2235, 2236, 2247, 2246
1943, 2467, 2468, 2479, 2478, 2236, 2237, 2248, 2247
1944, 2468, 2469, 2480, 2479, 2237, 2238, 2249, 2248
1945, 2469, 2470, 2481, 2480, 2238, 2239, 2250, 2249
1946, 2470, 2471, 2482, 2481, 2239, 2240, 2251, 2250
1947, 2471, 2472, 2483, 2482, 2240, 2241, 2252, 2251
1948, 2472, 2473, 2484, 2483, 2241, 2242, 2253, 2252
1949, 2473, 2474, 2485, 2484, 2242, 2243, 2254, 2253
1950, 2474, 2475, 2486, 2485, 2243, 2244, 2255, 2254
1951, 2476, 2477, 2488, 2487, 2245, 2246, 2257, 2256
1952, 2477, 2478, 2489, 2488, 2246, 2247, 2258, 2257
1953, 2478, 2479, 2490, 2489, 2247, 2248, 2259, 2258
1954, 2479, 2480, 2491, 2490, 2248, 2249, 2260, 2259
1955, 2480, 2481, 2492, 2491, 2249, 2250, 2261, 2260
1956, 2481, 2482, 2493, 2492, 2250, 2251, 2262, 2261
1957, 2482, 2483, 2494, 2493, 2251, 2252, 2263, 2262
1958, 2483, 2484, 2495, 2494, 2252, 2253, 2264, 2263
1959, 2484, 2485, 2496, 2495, 2253, 2254, 2265, 2264
1960, 2485, 2486, 2497, 2496, 2254, 2255, 2266, 2265
1961, 2487, 2488, 2499, 2498, 2256, 2257, 2268, 2267
1962, 2488, 2489, 2500, 2499, 2257, 2258, 2269, 2268
1963, 2489, 2490, 2501, 2500, 2258, 2259, 2270, 2269
1964, 2490, 2491, 2502, 2501, 2259, 2260, 2271, 2270
1965, 2491, 2492, 2503, 2502, 2260, 2261, 2272, 2271
1966, 2492, 2493, 2504, 2503, 2261, 2262, 2273, 2272
1967, 2493, 2494, 2505, 2504, 2262, 2263, 2274, 2273
1968, 2494, 2495, 2506, 2505, 2263, 2264, 2275, 2274
1969, 2495, 2496, 2507, 2506, 2264, 2265, 2276, 2275
1970, 2496, 2497, 2508, 2507, 2265, 2266, 2277, 2276
1971, 2498, 2499, 2510, 2509, 2267, 2268, 2279, 2278
1972, 2499, 2500, 2511, 2510, 2268, 2269, 2280, 2279
1973, 2500, 2501, 2512, 2511, 2269, 2270, 2281, 2280
1974, 2501, 2502, 2513, 2512, 2270, 2271, 2282, 2281
1975, 2502, 2503, 2514, 2513, 2271, 2272, 2283, 2282
1976, 2503, 2504, 2515, 2514, 2272, 2273, 2284, 2283
1977, 2504, 2505, 2516, 2515, 2273, 2274, 2285, 2284
1978, 2505, 2506, 2517, 2516, 2274, 2275, 2286, 2285
1979, 2506, 2507, 2518, 2517, 2275, 2276, 2287, 2286
1980, 2507, 2508, 2519, 2518, 2276, 2277, 2288, 2287
1981, 2509, 2510, 2521, 2520, 2278, 2279, 2290, 2289
1982, 2510, 2511, 2522, 2521, 2279, 2280, 2291, 2290
1983, 2511, 2512, 2523, 2522, 2280, 2281, 2292, 2291
1984, 2512, 2513, 2524, 2523, 2281, 2282, 2293, 2292
1985, 2513, 2514, 2525, 2524, 2282, 2283, 2294, 2293
1986, 2514, 2515, 2526, 2525, 2283, 2284, 2295, 2294
1987, 2515, 2516, 2527, 2526, 2284, 2285, 2296, 2295
1988, 2516, 2517, 2528, 2527, 2285, 2286, 2297, 2296
1989, 2517, 2518, 2529, 2528, 2286, 2287, 2298, 2297
1990, 2518, 2519, 2530, 2529, 2287, 2288, 2299, 2298
1991, 2520, 2521, 2532, 2531, 2289, 2290, 2301, 2300
1992, 2521, 2522, 2533, 2532, 2290, 2291, 2302, 2301
1993, 2522, 2523, 2534, 2533, 2291, 2292, 2303, 2302
1994, 2523, 2524, 2535, 2534, 2292, 2293, 2304, 2303
1995, 2524, 2525, 2536, 2535, 2293, 2294, 2305, 2304
1996, 2525, 2526, 2537, 2536, 2294, 2295, 2306, 2305
1997, 2526, 2527, 2538, 2537, 2295, 2296, 2307, 2306
1998, 2527, 2528, 2539, 2538, 2296, 2297, 2308, 2307
1999, 2528, 2529, 2540, 2539, 2297, 2298, 2309, 2308
2000, 2529, 2530, 2541, 2540, 2298, 2299, 2310, 2309
2001, 2542, 2543, 2554, 2553, 2311, 2312, 2323, 2322
2002, 2543, 2544, 2555, 2554, 2312, 2313, 2324, 2323
2003, 2544, 2545, 2556, 2555, 2313, 2314, 2325, 2324
2004, 2545, 2546, 2557, 2556, 2314, 2315, 2326, 2325
2005, 2546, 2547, 2558, 2557, 2315, 2316, 2327, 2326
2006, 2547, 2548, 2559, 2558, 2316, 2317, 2328, 2327
2007, 2548, 2549, 2560, 2559, 2317, 2318, 2329, 2328
2008, 2549, 2550, 2561, 2560, 2318, 2319, 2330, 2329
2009, 2550, 2551, 2562, 2561, 2319, 2320, 2331, 2330
2010, 2551, 2552, 2563, 2562, 2320, 2321, 2332, 2331
2011, 2553, 2554, 2565, 2564, 2322, 2323, 2334, 2333
2012, 2554, 2555, 2566, 2565, 2323, 2324, 2335, 2334
2013, 2555, 2556, 2567, 2566, 2324, 2325, 2336, 2335
2014, 2556, 2557, 2568, 2567, 2325, 2326, 2337, 2336
2015, 2557, 2558, 2569, 2568, 2326, 2327, 2338, 2337
2016, 2558, 2559, 2570, 2569, 2327, 2328, 2339, 2338
2017, 2559, 2560, 2571, 2570, 2328, 2329, 2340, 2339
2018, 2560, 2561, 2572, 2571, 2329, 2330, 2341, 2340
2019, 2561, 2562, 2573, 2572, 2330, 2331, 2342, 2341
2020, 2562, 2563, 2574, 2573, 2331, 2332, 2343, 2342
2021, 2564, 2565, 2576, 2575, 2333, 2334, 2345, 2344
2022, 2565, 2566, 2577, 2576, 2334, 2335, 2346, 2345
2023, 2566, 2567, 2578, 2577, 2335, 2336, 2347, 2346
2024, 2567, 2568, 2579, 2578, 2336, 2337, 2348, 2347
2025, 2568, 2569, 2580, 2579, 2337, 2338, 2349, 2348
2026, 2569, 2570, 2581, 2580, 2338, 2339, 2350, 2349
2027, 2570, 2571, 2582, 2581, 2339, 2340, 2351, 2350
2028, 2571, 2572, 2583, 2582, 2340, 2341, 2352, 2351
2029, 2572, 2573, 2584, 2583, 2341, 2342, 2353, 2352
2030, 2573, 2574, 2585, 2584, 2342, 2343, 2354, 2353
2031, 2575, 2576, 2587, 2586, 2344, 2345, 2356, 2355
2032, 2576, 2577, 2588, 2587, 2345, 2346, 2357, 2356
2033, 2577, 2578, 2589, 2588, 2346, 2347, 2358, 2357
2034, 2578, 2579, 2590, 2589, 2347, 2348, 2359, 2358
2035, 2579, 2580, 2591, 2590, 2348, 2349, 2360, 2359
2036, 2580, 2581, 2592, 2591, 2349, 2350, 2361, 2360
2037, 2581, 2582, 2593, 2592, 2350, 2351, 2362, 2361
2038, 2582, 2583, 2594, 2593, 2351, 2352, 2363, 2362
2039, 2583, 2584, 2595, 2594, 2352, 2353, 2364, 2363
2040, 2584, 2585, 2596, 2595, 2353, 2354, 2365, 2364
2041, 2586, 2587, 2598, 2597, 2355, 2356, 2367, 2366
2042, 2587, 2588, 2599, 2598, 2356, 2357, 2368, 2367
2043, 2588, 2589, 2600, 2599, 2357, 2358, 2369, 2368
2044, 2589, 2590, 2601, 2600, 2358, 2359, 2370, 2369
2045, 2590, 2591, 2602, 2601, 2359, 2360, 2371, 2370
2046, 2591, 2592, 2603, 2602, 2360, 2361, 2372, 2371
2047, 2592, 2593, 2604, 2603, 2361, 2362, 2373, 2372
2048, 2593, 2594, 2605, 2604, 2362, 2363, 2374, 2373
2049, 2594, 2595, 2606, 2605, 2363, 2364, 2375, 2374
2050, 2595, 2596, 2607, 2606, 2364, 2365, 2376, 2375
2051, 2597, 2598, 2609, 2608, 2366, 2367, 2378, 2377
2052, 2598, 2599, 2610, 2609, 2367, 2368, 2379, 2378
2053, 2599, 2600, 2611, 2610, 2368, 2369, 2380, 2379
2054, 2600, 2601, 2612, 2611, 2369, 2370, 2381, 2380
2055, 2601, 2602, 2613, 2612, 2370, 2371, 2382, 2381
2056, 2602, 2603, 2614, 2613, 2371, 2372, 2383, 2382
2057, 2603, 2604, 2615, 2614, 2372, 2373, 2384, 2383
2058, 2604, 2605, 2616, 2615, 2373, 2374, 2385, 2384
2059, 2605, 2606, 2617, 2616, 2374, 2375, 2386, 2385
2060, 2606, 2607, 2618, 2617, 2375, 2376, 2387, 2386
2061, 2608, 2609, 2620, 2619, 2377, 2378, 2389, 2388
2062, 2609, 2610, 2621, 2620, 2378, 2379, 2390, 2389
2063, 2610, 2611, 2622, 2621, 2379, 2380, 2391, 2390
2064, 2611, 2612, 2623, 2622, 2380, 2381, 2392, 2391
2065, 2612, 2613, 2624, 2623, 2381, 2382, 2393, 2392
2066, 2613, 2614, 2625, 2624, 2382, 2383, 2394, 2393
2067, 2614, 2615, 2626, 2625, 2383, 2384, 2395, 2394
2068, 2615, 2616, 2627, 2626, 2384, 2385, 2396, 2395
2069, 2616, 2617, 2628, 2627, 2385, 2386, 2397, 2396
2070, 2617, 2618, 2629, 2628, 2386, 2387, 2398, 2397
2071, 2619, 2620, 2631, 2630, 2388, 2389, 2400, 2399
2072, 2620, 2621, 2632, 2631, 2389, 2390, 2401, 2400
2073, 2621, 2622, 2633, 2632, 2390, 2391, 2402, 2401
2074, 2622, 2623, 2634, 2633, 2391, 2392, 2403, 2402
2075, 2623, 2624, 2635, 2634, 2392, 2393, 2404, 2403
2076, 2624, 2625, 2636, 2635, 2393, 2394, 2405, 2404
2077, 2625, 2626, 2637, 2636, 2394, 2395, 2406, 2405
2078, 2626, 2627, 2638, 2637, 2395, 2396, 2407, 2406
2079, 2627, 2628, 2639, 2638, 2396, 2397, 2408, 2407
2080, 2628, 2629, 2640, 2639, 2397, 2398, 2409, 2408
2081, 2630, 2631, 2642, 2641, 2399, 2400, 2411, 2410
2082, 2631, 2632, 2643, 2642, 2400, 2401, 2412, 2411
2083, 2632, 2633, 2644, 2643, 2401, 2402, 2413, 2412
2084, 2633, 2634, 2645, 2644, 2402, 2403, 2414, 2413
2085, 2634, 2635, 2646, 2645, 2403, 2404, 2415, 2414
2086, 2635, 2636, 2647, 2646, 2404, 2405, 2416, 2415
2087, 2636, 2637, 2648, 2647, 2405, 2406, 2417, 2416
2088, 2637, 2638, 2649, 2648, 2406, 2407, 2418, 2417
2089, 2638, 2639, 2650, 2649, 2407, 2408, 2419, 2418
2090, 2639, 2640, 2651, 2650, 2408, 2409, 2420, 2419
2091, 2641, 2642, 2653, 2652, 2410, 2411, 2422, 2421
2092, 2642, 2643, 2654, 2653, 2411, 2412, 2423, 2422
2093, 2643, 2644, 2655, 2654, 2412, 2413, 2424, 2423
2094, 2644, 2645, 2656, 2655, 2413, 2414, 2425, 2424
2095, 2645, 2646, 2657, 2656, 2414, 2415, 2426, 2425
2096, 2646, 2647, 2658, 2657, 2415, 2416, 2427, 2426
2097, 2647, 2648, 2659, 2658, 2416, 2417, 2428, 2427
2098, 2648, 2649, 2660, 2659, 2417, 2418, 2429, 2428
2099, 2649, 2650, 2661, 2660, 2418, 2419, 2430, 2429
2100, 2650, 2651, 2662, 2661, 2419, 2420, 2431, 2430
2101, 2652, 2653, 2664, 2663, 2421, 2422, 2433, 2432
2102, 2653, 2654, 2665, 2664, 2422, 2423, 2434, 2433
2103, 2654, 2655, 2666, 2665, 2423, 2424, 2435, 2434
2104, 2655, 2656, 2667, 2666, 2424, 2425, 2436, 2435
2105, 2656, 2657, 2668, 2667, 2425, 2426, 2437, 2436
2106, 2657, 2658, 2669, 2668, 2426, 2427, 2438, 2437
2107, 2658, 2659, 2670, 2669, 2427, 2428, 2439, 2438
2108, 2659, 2660, 2671, 2670, 2428, 2429, 2440, 2439
2109, 2660, 2661, 2672, 2671, 2429, 2430, 2441, 2440
2110, 2661, 2662, 2673, 2672, 2430, 2431, 2442, 2441
2111, 2663, 2664, 2675, 2674, 2432, 2433, 2444, 2443
2112, 2664, 2665, 2676, 2675, 2433, 2434, 2445, 2444
2113, 2665, 2666, 2677, 2676, 2434, 2435, 2446, 2445
2114, 2666, 2667, 2678, 2677, 2435, 2436, 2447, 2446
2115, 2667, 2668, 2679, 2678, 2436, 2437, 2448, 2447
2116, 2668, 2669, 2680, 2679, 2437, 2438, 2449, 2448
2117, 2669, 2670, 2681, 2680, 2438, 2439, 2450, 2449
2118, 2670, 2671, 2682, 2681, 2439, 2440, 2451, 2450
2119, 2671, 2672, 2683, 2682, 2440, 2441, 2452, 2451
2120, 2672, 2673, 2684, 2683, 2441, 2442, 2453, 2452
2121, 2674, 2675, 2686, 2685, 2443, 2444, 2455, 2454
2122, 2675, 2676, 2687, 2686, 2444, 2445, 2456, 2455
2123, 2676, 2677, 2688, 2687, 2445, 2446, 2457, 2456
2124, 2677, 2678, 2689, 2688, 2446, 2447, 2458, 2457
2125, 2678, 2679, 2690, 2689, 2447, 2448, 2459, 2458
2126, 2679, 2680, 2691, 2690, 2448, 2449, 2460, 2459
2127, 2680, 2681, 2692, 2691, 2449, 2450, 2461, 2460
2128, 2681, 2682, 2693, 2692, 2450, 2451, 2462, 2461
2129, 2682, 2683, 2694, 2693, 2451, 2452, 2463, 2462
2130, 2683, 2684, 2695, 2694, 2452, 2453, 2464, 2463
2131, 2685, 2686, 2697, 2696, 2454, 2455, 2466, 2465
2132, 2686, 2687, 2698, 2697, 2455, 2456, 2467, 2466
2133, 2687, 2688, 2699, 2698, 2456, 2457, 2468, 2467
2134, 2688, 2689, 2700, 2699, 2457, 2458, 2469, 2468
2135, 2689, 2690, 2701, 2700, 2458, 2459, 2470, 2469
2136, 2690, 2691, 2702, 2701, 2459, 2460, 2471, 2470
2137, 2691, 2692, 2703, 2702, 2460, 2461, 2472, 2471
2138, 2692, 2693, 2704, 2703, 2461, 2462, 2473, 2472
2139, 2693, 2694, 2705, 2704, 2462, 2463, 2474, 2473
2140, 2694, 2695, 2706, 2705, 2463, 2464, 2475, 2474
2141, 2696, 2697, 2708, 2707, 2465, 2466, 2477, 2476
2142, 2697, 2698, 2709, 2708, 2466, 2467, 2478, 2477
2143, 2698, 2699, 2710, 2709, 2467, 2468, 2479, 2478
2144, 2699, 2700, 2711, 2710, 2468, 2469, 2480, 2479
2145, 2700, 2701, 2712, 2711, 2469, 2470, 2481, 2480
2146, 2701, 2702, 2713, 2712, 2470, 2471, 2482, 2481
2147, 2702, 2703, 2714, 2713, 2471, 2472, 2483, 2482
2148, 2703, 2704, 2715, 2714, 2472, 2473, 2484, 2483
2149, 2704, 2705, 2716, 2715, 2473, 2474, 2485, 2484
2150, 2705, 2706, 2717, 2716, 2474, 2475, 2486, 2485
2151, 2707, 2708, 2719, 2718, 2476, 2477, 2488, 2487
2152, 2708, 2709, 2720, 2719, 2477, 2478, 2489, 2488
2153, 2709, 2710, 2721, 2720, 2478, 2479, 2490, 2489
2154, 2710, 2711, 2722, 2721, 2479, 2480, 2491, 2490
2155, 2711, 2712, 2723, 2722, 2480, 2481, 2492, 2491
2156, 2712, 2713, 2724, 2723, 2481, 2482, 2493, 2492
2157, 2713, 2714, 2725, 2724, 2482, 2483, 2494, 2493
2158, 2714, 2715, 2726, 2725, 2483, 2484, 2495, 2494
2159, 2715, 2716, 2727, 2726, 2484, 2485, 2496, 2495
2160, 2716, 2717, 2728, 2727, 2485, 2486, 2497, 2496
2161, 2718, 2719, 2730, 2729, 2487, 2488, 2499, 2498
2162, 2719, 2720, 2731, 2730, 2488, 2489, 2500, 2499
2163, 2720, 2721, 2732, 2731, 2489, 2490, 2501, 2500
2164, 2721, 2722, 2733, 2732, 2490, 2491, 2502, 2501
2165, 2722, 2723, 2734, 2733, 2491, 2492, 2503, 2502
2166, 2723, 2724, 2735, 2734, 2492, 2493, 2504, 2503
2167, 2724, 2725, 2736, 2735, 2493, 2494, 2505, 2504
2168, 2725, 2726, 2737, 2736, 2494, 2495, 2506, 2505
2169, 2726, 2727, 2738, 2737, 2495, 2496, 2507, 2506
2170, 2727, 2728, 2739, 2738, 2496, 2497, 2508, 2507
2171, 2729, 2730, 2741, 2740, 2498, 2499, 2510, 2509
2172, 2730, 2731, 2742, 2741, 2499, 2500, 2511, 2510
2173, 2731, 2732, 2743, 2742, 2500, 2501, 2512, 2511
2174, 2732, 2733, 2744, 2743, 2501, 2502, 2513, 2512
2175, 2733, 2734, 2745, 2744, 2502, 2503, 2514, 2513
2176, 2734, 2735, 2746, 2745, 2503, 2504, 2515, 2514
2177, 2735, 2736, 2747, 2746, 2504, 2505, 2516, 2515
2178, 2736, 2737, 2748, 2747, 2505, 2506, 2517, 2516
2179, 2737, 2738, 2749, 2748, 2506, 2507, 2518, 2517
2180, 2738, 2739, 2750, 2749, 2507, 2508, 2519, 2518
2181, 2740, 2741, 2752, 2751, 2509, 2510, 2521, 2520
2182, 2741, 2742, 2753, 2752, 2510, 2511, 2522, 2521
2183, 2742, 2743, 2754, 2753, 2511, 2512, 2523, 2522
2184, 2743, 2744, 2755, 2754, 2512, 2513, 2524, 2523
2185, 2744, 2745, 2756, 2755, 2513, 2514, 2525, 2524
2186, 2745, 2746, 2757, 2756, 2514, 2515, 2526, 2525
2187, 2746, 2747, 2758, 2757, 2515, 2516, 2527, 2526
2188, 2747, 2748, 2759, 2758, 2516, 2517, 2528, 2527
2189, 2748, 2749, 2760, 2759, 2517, 2518, 2529, 2528
2190, 2749, 2750, 2761, 2760, 2518, 2519, 2530, 2529
2191, 2751, 2752, 2763, 2762, 2520, 2521, 2532, 2531
2192, 2752, 2753, 2764, 2763, 2521, 2522, 2533, 2532
2193, 2753, 2754, 2765, 2764, 2522, 2523, 2534, 2533
2194, 2754, 2755, 2766, 2765, 2523, 2524, 2535, 2534
2195, 2755, 2756, 2767, 2766, 2524, 2525, 2536, 2535
2196, 2756, 2757, 2768, 2767, 2525, 2526, 2537, 2536
2197, 2757, 2758, 2769, 2768, 2526, 2527, 2538, 2537
2198, 2758, 2759, 2770, 2769, 2527, 2528, 2539, 2538
2199, 2759, 2760, 2771, 2770, 2528, 2529, 2540, 2539
2200, 2760, 2761, 2772, 2771, 2529, 2530, 2541, 2540
2201, 2773, 2774, 2785, 2784, 2542, 2543, 2554, 2553
2202, 2774, 2775, 2786, 2785, 2543, 2544, 2555, 2554
2203, 2775, 2776, 2787, 2786, 2544, 2545, 2556, 2555
2204, 2776, 2777, 2788, 2787, 2545, 2546, 2557, 2556
2205, 2777, 2778, 2789, 2788, 2546, 2547, 2558, 2557
2206, 2778, 2779, 2790, 2789, 2547, 2548, 2559, 2558
2207, 2779, 2780, 2791, 2790, 2548, 2549, 2560, 2559
2208, 2780, 2781, 2792, 2791, 2549, 2550, 2561, 2560
2209, 2781, 2782, 2793, 2792, 2550, 2551, 2562, 2561
2210, 2782, 2783, 2794, 2793, 2551, 2552, 2563, 2562
2211, 2784, 2785, 2796, 2795, 2553, 2554, 2565, 2564
2212, 2785, 2786, 2797, 2796, 2554, 2555, 2566, 2565
2213, 2786, 2787, 2798, 2797, 2555, 2556, 2567, 2566
2214, 2787, 2788, 2799, 2798, 2556, 2557, 2568, 2567
2215, 2788, 2789, 2800, 2799, 2557, 2558, 2569, 2568
2216, 2789, 2790, 2801, 2800, 2558, 2559, 2570, 2569
2217, 2790, 2791, 2802, 2801, 2559, 2560, 2571, 2570
2218, 2791, 2792, 2803, 2802, 2560, 2561, 2572, 2571
2219, 2792, 2793, 2804, 2803, 2561, 2562, 2573, 2572
2220, 2793, 2794, 2805, 2804, 2562, 2563, 2574, 2573
2221, 2795, 2796, 2807, 2806, 2564, 2565, 2576, 2575
2222, 2796, 2797, 2808, 2807, 2565, 2566, 2577, 2576
2223, 2797, 2798, 2809, 2808, 2566, 2567, 2578, 2577
2224, 2798, 2799, 2810, 2809, 2567, 2568, 2579, 2578
2225, 2799, 2800, 2811, 2810, 2568, 2569, 2580, 2579
2226, 2800, 2801, 2812, 2811, 2569, 2570, 2581, 2580
2227, 2801, 2802, 2813, 2812, 2570, 2571, 2582, 2581
2228, 2802, 2803, 2814, 2813, 2571, 2572, 2583, 2582
2229, 2803, 2804, 2815, 2814, 2572, 2573, 2584, 2583
2230, 2804, 2805, 2816, 2815, 2573, 2574, 2585, 2584
2231, 2806, 2807, 2818, 2817, 2575, 2576, 2587, 2586
2232, 2807, 2808, 2819, 2818, 2576, 2577, 2588, 2587
2233, 2808, 2809, 2820, 2819, 2577, 2578, 2589, 2588
2234, 2809, 2810, 2821, 2820, 2578, 2579, 2590, 2589
2235, 2810, 2811, 2822, 2821, 2579, 2580, 2591, 2590
2236, 2811, 2812, 2823, 2822, 2580, 2581, 2592, 2591
2237, 2812, 2813, 2824, 2823, 2581, 2582, 2593, 2592
2238, 2813, 2814, 2825, 2824, 2582, 2583, 2594, 2593
2239, 2814, 2815, 2826, 2825, 2583, 2584, 2595, 2594
2240, 2815, 2816, 2827, 2826, 2584, 2585, 2596, 2595
2241, 2817, 2818, 2829, 2828, 2586, 2587, 2598, 2597
2242, 2818, 2819, 2830, 2829, 2587, 2588, 2599, 2598
2243, 2819, 2820, 2831, 2830, 2588, 2589, 2600, 2599
2244, 2820, 2821, 2832, 2831, 2589, 2590, 2601, 2600
2245, 2821, 2822, 2833, 2832, 2590, 2591, 2602, 2601
2246, 2822, 2823, 2834, 2833, 2591, 2592, 2603, 2602
2247, 2823, 2824, 2835, 2834, 2592, 2593, 2604, 2603
2248, 2824, 2825, 2836, 2835, 2593, 2594, 2605, 2604
2249, 2825, 2826, 2837, 2836, 2594, 2595, 2606, 2605
2250, 2826, 2827, 2838, 2837, 2595, 2596, 2607, 2606
2251, 2828, 2829, 2840, 2839, 2597, 2598, 2609, 2608
2252, 2829, 2830, 2841, 2840, 2598, 2599, 2610, 2609
2253, 2830, 2831, 2842, 2841, 2599, 2600, 2611, 2610
2254, 2831, 2832, 2843, 2842, 2600, 2601, 2612, 2611
2255, 2832, 2833, 2844, 2843, 2601, 2602, 2613, 2612
2256, 2833, 2834, 2845, 2844, 2602, 2603, 2614, 2613
2257, 2834, 2835, 2846, 2845, 2603, 2604, 2615, 2614
2258, 2835, 2836, 2847, 2846, 2604, 2605, 2616, 2615
2259, 2836, 2837, 2848, 2847, 2605, 2606, 2617, 2616
2260, 2837, 2838, 2849, 2848, 2606, 2607, 2618, 2617
2261, 2839, 2840, 2851, 2850, 2608, 2609, 2620, 2619
2262, 2840, 2841, 2852, 2851, 2609, 2610, 2621, 2620
2263, 2841, 2842, 2853, 2852, 2610, 2611, 2622, 2621
2264, 2842, 2843, 2854, 2853, 2611, 2612, 2623, 2622
2265, 2843, 2844, 2855, 2854, 2612, 2613, 2624, 2623
2266, 2844, 2845, 2856, 2855, 2613, 2614, 2625, 2624
2267, 2845, 2846, 2857, 2856, 2614, 2615, 2626, 2625
2268, 2846, 2847, 2858, 2857, 2615, 2616, 2627, 2626
2269, 2847, 2848, 2859, 2858, 2616, 2617, 2628, 2627
2270, 2848, 2849, 2860, 2859, 2617, 2618, 2629, 2628
2271, 2850, 2851, 2862, 2861, 2619, 2620, 2631, 2630
2272, 2851, 2852, 2863, 2862, 2620, 2621, 2632, 2631
2273, 2852, 2853, 2864, 2863, 2621, 2622, 2633, 2632
2274, 2853, 2854, 2865, 2864, 2622, 2623, 2634, 2633
2275, 2854, 2855, 2866, 2865, 2623, 2624, 2635, 2634
2276, 2855, 2856, 2867, 2866, 2624, 2625, 2636, 2635
2277, 2856, 2857, 2868, 2867, 2625, 2626, 2637, 2636
2278, 2857, 2858, 2869, 2868, 2626, 2627, 2638, 2637
2279, 2858, 2859, 2870, 2869, 2627, 2628, 2639, 2638
2280, 2859, 2860, 2871, 2870, 2628, 2629, 2640, 2639
2281, 2861, 2862, 2873, 2872, 2630, 2631, 2642, 2641
2282, 2862, 2863, 2874, 2873, 2631, 2632, 2643, 2642
2283, 2863, 2864, 2875, 2874, 2632, 2633, 2644, 2643
2284, 2864, 2865, 2876, 2875, 2633, 2634, 2645, 2644
2285, 2865, 2866, 2877, 2876, 2634, 2635, 2646, 2645
2286, 2866, 2867, 2878, 2877, 2635, 2636, 2647, 2646
2287, 2867, 2868, 2879, 2878, 2636, 2637, 2648, 2647
2288, 2868, 2869, 2880, 2879, 2637, 2638, 2649, 2648
2289, 2869, 2870, 2881, 2880, 2638, 2639, 2650, 2649
2290, 2870, 2871, 2882, 2881, 2639, 2640, 2651, 2650
2291, 2872, 2873, 2884, 2883, 2641, 2642, 2653, 2652
2292, 2873, 2874, 2885, 2884, 2642, 2643, 2654, 2653
2293, 2874, 2875, 2886, 2885, 2643, 2644, 2655, 2654
2294, 2875, 2876, 2887, 2886, 2644, 2645, 2656, 2655
2295, 2876, 2877, 2888, 2887, 2645, 2646, 2657, 2656
2296, 2877, 2878, 2889, 2888, 2646, 2647, 2658, 2657
2297, 2878, 2879, 2890, 2889, 2647, 2648, 2659, 2658
2298, 2879, 2880, 2891, 2890, 2648, 2649, 2660, 2659
2299, 2880, 2881, 2892, 2891, 2649, 2650, 2661, 2660
2300, 2881, 2882, 2893, 2892, 2650, 2651, 2662, 2661
2301, 2883, 2884, 2895, 2894, 2652, 2653, 2664, 2663
2302, 2884, 2885, 2896, 2895, 2653, 2654, 2665, 2664
2303, 2885, 2886, 2897, 2896, 2654, 2655, 2666, 2665
2304, 2886, 2887, 2898, 2897, 2655, 2656, 2667, 2666
2305, 2887, 2888, 2899, 2898, 2656, 2657, 2668, 2667
2306, 2888, 2889, 2900, 2899, 2657, 2658, 2669, 2668
2307, 2889, 2890, 2901, 2900, 2658, 2659, 2670, 2669
2308, 2890, 2891, 2902, 2901, 2659, 2660, 2671, 2670
2309, 2891, 2892, 2903, 2902, 2660, 2661, 2672, 2671
2310, 2892, 2893, 2904, 2903, 2661, 2662, 2673, 2672
2311, 2894, 2895, 2906, 2905, 2663, 2664, 2675, 2674
2312, 2895, 2896, 2907, 2906, 2664, 2665, 2676, 2675
2313, 2896, 2897, 2908, 2907, 2665, 2666, 2677, 2676
2314, 2897, 2898, 2909, 2908, 2666, 2667, 2678, 2677
2315, 2898, 2899, 2910, 2909, 2667, 2668, 2679, 2678
2316, 2899, 2900, 2911, 2910, 2668, 2669, 2680, 2679
2317, 2900, 2901, 2912, 2911, 2669, 2670, 2681, 2680
2318, 2901, 2902, 2913, 2912, 2670, 2671, 2682, 2681
2319, 2902, 2903, 2914, 2913, 2671, 2672, 2683, 2682
2320, 2903, 2904, 2915, 2914, 2672, 2673, 2684, 2683
2321, 2905, 2906, 2917, 2916, 2674, 2675, 2686, 2685
2322, 2906, 2907, 2918, 2917, 2675, 2676, 2687, 2686
2323, 2907, 2908, 2919, 2918, 2676, 2677, 2688, 2687
2324, 2908, 2909, 2920, 2919, 2677, 2678, 2689, 2688
2325, 2909, 2910, 2921, 2920, 2678, 2679, 2690, 2689
2326, 2910, 2911, 2922, 2921, 2679, 2680, 2691, 2690
2327, 2911, 2912, 2923, 2922, 2680, 2681, 2692, 2691
2328, 2912, 2913, 2924, 2923, 2681, 2682, 2693, 2692
2329, 2913, 2914, 2925, 2924, 2682, 2683, 2694, 2693
2330, 2914, 2915, 2926, 2925, 2683, 2684, 2695, 2694
2331, 2916, 2917, 2928, 2927, 2685, 2686, 2697, 2696
2332, 2917, 2918, 2929, 2928, 2686, 2687, 2698, 2697
2333, 2918, 2919, 2930, 2929, 2687, 2688, 2699, 2698
2334, 2919, 2920, 2931, 2930, 2688, 2689, 2700, 2699
2335, 2920, 2921, 2932, 2931, 2689, 2690, 2701, 2700
2336, 2921, 2922, 2933, 2932, 2690, 2691, 2702, 2701
2337, 2922, 2923, 2934, 2933, 2691, 2692, 2703, 2702
2338, 2923, 2924, 2935, 2934, 2692, 2693, 2704, 2703
2339, 2924, 2925, 2936, 2935, 2693, 2694, 2705, 2704
2340, 2925, 2926, 2937, 2936, 2694, 2695, 2706, 2705
2341, 2927, 2928, 2939, 2938, 2696, 2697, 2708, 2707
2342, 2928, 2929, 2940, 2939, 2697, 2698, 2709, 2708
2343, 2929, 2930, 2941, 2940, 2698, 2699, 2710, 2709
2344, 2930, 2931, 2942, 2941, 2699, 2700, 2711, 2710
2345, 2931, 2932, 2943, 2942, 2700, 2701, 2712, 2711
2346, 2932, 2933, 2944, 2943, 2701, 2702, 2713, 2712
2347, 2933, 2934, 2945, 2944, 2702, 2703, 2714, 2713
2348, 2934, 2935, 2946, 2945, 2703, 2704, 2715, 2714
2349, 2935, 2936, 2947, 2946, 2704, 2705, 2716, 2715
2350, 2936, 2937, 2948, 2947, 2705, 2706, 2717, 2716
2351, 2938, 2939, 2950, 2949, 2707, 2708, 2719, 2718
2352, 2939, 2940, 2951, 2950, 2708, 2709, 2720, 2719
2353, 2940, 2941, 2952, 2951, 2709, 2710, 2721, 2720
2354, 2941, 2942, 2953, 2952, 2710, 2711, 2722, 2721
2355, 2942, 2943, 2954, 2953, 2711, 2712, 2723, 2722
2356, 2943, 2944, 2955, 2954, 2712, 2713, 2724, 2723
2357, 2944, 2945, 2956, 2955, 2713, 2714, 2725, 2724
2358, 2945, 2946, 2957, 2956, 2714, 2715, 2726, 2725
2359, 2946, 2947, 2958, 2957, 2715, 2716, 2727, 2726
2360, 2947, 2948, 2959, 2958, 2716, 2717, 2728, 2727
2361, 2949, 2950, 2961, 2960, 2718, 2719, 2730, 2729
2362, 2950, 2951, 2962, 2961, 2719, 2720, 2731, 2730
2363, 2951, 2952, 2963, 2962, 2720, 2721, 2732, 2731
2364, 2952, 2953, 2964, 2963, 2721, 2722, 2733, 2732
2365, 2953, 2954, 2965, 2964, 2722, 2723, 2734, 2733
2366, 2954, 2955, 2966, 2965, 2723, 2724, 2735, 2734
2367, 2955, 2956, 2967, 2966, 2724, 2725, 2736, 2735
2368, 2956, 2957, 2968, 2967, 2725, 2726, 2737, 2736
2369, 2957, 2958, 2969, 2968, 2726, 2727, 2738, 2737
2370, 2958, 2959, 2970, 2969, 2727, 2728, 2739, 2738
2371, 2960, 2961, 2972, 2971, 2729, 2730, 2741, 2740
2372, 2961, 2962, 2973, 2972, 2730, 2731, 2742, 2741
2373, 2962, 2963, 2974, 2973, 2731, 2732, 2743, 2742
2374, 2963, 2964, 2975, 2974, 2732, 2733, 2744, 2743
2375, 2964, 2965, 2976, 2975, 2733, 2734, 2745, 2744
2376, 2965, 2966, 2977, 2976, 2734, 2735, 2746, 2745
2377, 2966, 2967, 2978, 2977, 2735, 2736, 2747, 2746
2378, 2967, 2968, 2979, 2978, 2736, 2737, 2748, 2747
2379, 2968, 2969, 2980, 2979, 2737, 2738, 2749, 2748
2380, 2969, 2970, 2981, 2980, 2738, 2739, 2750, 2749
2381, 2971, 2972, 2983, 2982, 2740, 2741, 2752, 2751
2382, 2972, 2973, 2984, 2983, 2741, 2742, 2753, 2752
2383, 2973, 2974, 2985, 2984, 2742, 2743, 2754, 2753
2384, 2974, 2975, 2986, 2985, 2743, 2744, 2755, 2754
2385, 2975, 2976, 2987, 2986, 2744, 2745, 2756, 2755
2386, 2976, 2977, 2988, 2987, 2745, 2746, 2757, 2756
2387, 2977, 2978, 2989, 2988, 2746, 2747, 2758, 2757
2388, 2978, 2979, 2990, 2989, 2747, 2748, 2759, 2758
2389, 2979, 2980, 2991, 2990, 2748, 2749, 2760, 2759
2390, 2980, 2981, 2992, 2991, 2749, 2750, 2761, 2760
2391, 2982, 2983, 2994, 2993, 2751, 2752, 2763, 2762
2392, 2983, 2984, 2995, 2994, 2752, 2753, 2764, 2763
2393, 2984, 2985, 2996, 2995, 2753, 2754, 2765, 2764
2394, 2985, 2986, 2997, 2996, 2754, 2755, 2766, 2765
2395, 2986, 2987, 2998, 2997, 2755, 2756, 2767, 2766
2396, 2987, 2988, 2999, 2998, 2756, 2757, 2768, 2767
2397, 2988, 2989, 3000, 2999, 2757, 2758, 2769, 2768
2398, 2989, 2990, 3001, 3000, 2758, 2759, 2770, 2769
2399, 2990, 2991, 3002, 3001, 2759, 2760, 2771, 2770
2400, 2991, 2992, 3003, 3002, 2760, 2761, 2772, 2771
2401, 3004, 3005, 3016, 3015, 2773, 2774, 2785, 2784
2402, 3005, 3006, 3017, 3016, 2774, 2775, 2786, 2785
2403, 3006, 3007, 3018, 3017, 2775, 2776, 2787, 2786
2404, 3007, 3008, 3019, 3018, 2776, 2777, 2788, 2787
2405, 3008, 3009, 3020, 3019, 2777, 2778, 2789, 2788
2406, 3009, 3010, 3021, 3020, 2778, 2779, 2790, 2789
2407, 3010, 3011, 3022, 3021, 2779, 2780, 2791, 2790
2408, 3011, 3012, 3023, 3022, 2780, 2781, 2792, 2791
2409, 3012, 3013, 3024, 3023, 2781, 2782, 2793, 2792
2410, 3013, 3014, 3025, 3024, 2782, 2783, 2794, 2793
2411, 3015, 3016, 3027, 3026, 2784, 2785, 2796, 2795
2412, 3016, 3017, 3028, 3027, 2785, 2786, 2797, 2796
2413, 3017, 3018, 3029, 3028, 2786, 2787, 2798, 2797
2414, 3018, 3019, 3030, 3029, 2787, 2788, 2799, 2798
2415, 3019, 3020, 3031, 3030, 2788, 2789, 2800, 2799
2416, 3020, 3021, 3032, 3031, 2789, 2790, 2801, 2800
2417, 3021, 3022, 3033, 3032, 2790, 2791, 2802, 2801
2418, 3022, 3023, 3034, 3033, 2791, 2792, 2803, 2802
2419, 3023, 3024, 3035, 3034, 2792, 2793, 2804, 2803
2420, 3024, 3025, 3036, 3035, 2793, 2794, 2805, 2804
2421, 3026, 3027, 3038, 3037, 2795, 2796, 2807, 2806
2422, 3027, 3028, 3039, 3038, 2796, 2797, 2808, 2807
2423, 3028, 3029, 3040, 3039, 2797, 2798, 2809, 2808
2424, 3029, 3030, 3041, 3040, 2798, 2799, 2810, 2809
2425, 3030, 3031, 3042, 3041, 2799, 2800, 2811, 2810
2426, 3031, 3032, 3043, 3042, 2800, 2801, 2812, 2811
2427, 3032, 3033, 3044, 3043, 2801, 2802, 2813, 2812
2428, 3033, 3034, 3045, 3044, 2802, 2803, 2814, 2813
2429, 3034, 3035, 3046, 3045, 2803, 2804, 2815, 2814
2430, 3035, 3036, 3047, 3046, 2804, 2805, 2816, 2815
2431, 3037, 3038, 3049, 3048, 2806, 2807, 2818, 2817
2432, 3038, 3039, 3050, 3049, 2807, 2808, 2819, 2818
2433, 3039, 3040, 3051, 3050, 2808, 2809, 2820, 2819
2434, 3040, 3041, 3052, 3051, 2809, 2810, 2821, 2820
2435, 3041, 3042, 3053, 3052, 2810, 2811, 2822, 2821
2436, 3042, 3043, 3054, 3053, 2811, 2812, 2823, 2822
2437, 3043, 3044, 3055, 3054, 2812, 2813, 2824, 2823
2438, 3044, 3045, 3056, 3055, 2813, 2814, 2825, 2824
2439, 3045, 3046, 3057, 3056, 2814, 2815, 2826, 2825
2440, 3046, 3047, 3058, 3057, 2815, 2816, 2827, 2826
2441, 3048, 3049, 3060, 3059, 2817, 2818, 2829, 2828
2442, 3049, 3050, 3061, 3060, 2818, 2819, 2830, 2829
2443, 3050, 3051, 3062, 3061, 2819, 2820, 2831, 2830
2444, 3051, 3052, 3063, 3062, 2820, 2821, 2832, 2831
2445, 3052, 3053, 3064, 3063, 2821, 2822, 2833, 2832
2446, 3053, 3054, 3065, 3064, 2822, 2823, 2834, 2833
2447, 3054, 3055, 3066, 3065, 2823, 2824, 2835, 2834
2448, 3055, 3056, 3067, 3066, 2824, 2825, 2836, 2835
2449, 3056, 3057, 3068, 3067, 2825, 2826, 2837, 2836
2450, 3057, 3058, 3069, 3068, 2826, 2827, 2838, 2837
2451, 3059, 3060, 3071, 3070, 2828, 2829, 2840, 2839
2452, 3060, 3061, 3072, 3071, 2829, 2830, 2841, 2840
2453, 3061, 3062, 3073, 3072, 2830, 2831, 2842, 2841
2454, 3062, 3063, 3074, 3073, 2831, 2832, 2843, 2842
2455, 3063, 3064, 3075, 3074, 2832, 2833, 2844, 2843
2456, 3064, 3065, 3076, 3075, 2833, 2834, 2845, 2844
2457, 3065, 3066, 3077, 3076, 2834, 2835, 2846, 2845
2458, 3066, 3067, 3078, 3077, 2835, 2836, 2847, 2846
2459, 3067, 3068, 3079, 3078, 2836, 2837, 2848, 2847
2460, 3068, 3069, 3080, 3079, 2837, 2838, 2849, 2848
2461, 3070, 3071, 3082, 3081, 2839, 2840, 2851, 2850
2462, 3071, 3072, 3083, 3082, 2840, 2841, 2852, 2851
2463, 3072, 3073, 3084, 3083, 2841, 2842, 2853, 2852
2464, 3073, 3074, 3085, 3084, 2842, 2843, 2854, 2853
2465, 3074, 3075, 3086, 3085, 2843, 2844, 2855, 2854
2466, 3075, 3076, 3087, 3086, 2844, 2845, 2856, 2855
2467, 3076, 3077, 3088, 3087, 2845, 2846, 2857, 2856
2468, 3077, 3078, 3089, 3088, 2846, 2847, 2858, 2857
2469, 3078, 3079, 3090, 3089, 2847, 2848, 2859, 2858
2470, 3079, 3080, 3091, 3090, 2848, 2849, 2860, 2859
2471, 3081, 3082, 3093, 3092, 2850, 2851, 2862, 2861
2472, 3082, 3083, 3094, 3093, 2851, 2852, 2863, 2862
2473, 3083, 3084, 3095, 3094, 2852, 2853, 2864, 2863
2474, 3084, 3085, 3096, 3095, 2853, 2854, 2865, 2864
2475, 3085, 3086, 3097, 3096, 2854, 2855, 2866, 2865
2476, 3086, 3087, 3098, 3097, 2855, 2856, 2867, 2866
2477, 3087, 3088, 3099, 3098, 2856, 2857, 2868, 2867
2478, 3088, 3089, 3100, 3099, 2857, 2858, 2869, 2868
2479, 3089, 3090, 3101, 3100, 2858, 2859, 2870, 2869
2480, 3090, 3091, 3102, 3101, 2859, 2860, 2871, 2870
2481, 3092, 3093, 3104, 3103, 2861, 2862, 2873, 2872
2482, 3093, 3094, 3105, 3104, 2862, 2863, 2874, 2873
2483, 3094, 3095, 3106, 3105, 2863, 2864, 2875, 2874
2484, 3095, 3096, 3107, 3106, 2864, 2865, 2876, 2875
2485, 3096, 3097, 3108, 3107, 2865, 2866, 2877, 2876
2486, 3097, 3098, 3109, 3108, 2866, 2867, 2878, 2877
2487, 3098, 3099, 3110, 3109, 2867, 2868, 2879, 2878
2488, 3099, 3100, 3111, 3110, 2868, 2869, 2880, 2879
2489, 3100, 3101, 3112, 3111, 2869, 2870, 2881, 2880
2490, 3101, 3102, 3113, 3112, 2870, 2871, 2882, 2881
2491, 3103, 3104, 3115, 3114, 2872, 2873, 2884, 2883
2492, 3104, 3105, 3116, 3115, 2873, 2874, 2885, 2884
2493, 3105, 3106, 3117, 3116, 2874, 2875, 2886, 2885
2494, 3106, 3107, 3118, 3117, 2875, 2876, 2887, 2886
2495, 3107, 3108, 3119, 3118, 2876, 2877, 2888, 2887
2496, 3108, 3109, 3120, 3119, 2877, 2878, 2889, 2888
2497, 3109, 3110, 3121, 3120, 2878, 2879, 2890, 2889
2498, 3110, 3111, 3122, 3121, 2879, 2880, 2891, 2890
2499, 3111, 3112, 3123, 3122, 2880, 2881, 2892, 2891
2500, 3112, 3113, 3124, 3123, 2881, 2882, 2893, 2892
2501, 3114, 3115, 3126, 3125, 2883, 2884, 2895, 2894
2502, 3115, 3116, 3127, 3126, 2884, 2885, 2896, 2895
2503, 3116, 3117, 3128, 3127, 2885, 2886, 2897, 2896
2504, 3117, 3118, 3129, 3128, 2886, 2887, 2898, 2897
2505, 3118, 3119, 3130, 3129, 2887, 2888, 2899, 2898
2506, 3119, 3120, 3131, 3130, 2888, 2889, 2900, 2899
2507, 3120, 3121, 3132, 3131, 2889, 2890, 2901, 2900
2508, 3121, 3122, 3133, 3132, 2890, 2891, 2902, 2901
2509, 3122, 3123, 3134, 3133, 2891, 2892, 2903, 2902
2510, 3123, 3124, 3135, 3134, 2892, 2893, 2904, 2903
2511, 3125, 3126, 3137, 3136, 2894, 2895, 2906, 2905
2512, 3126, 3127, 3138, 3137, 2895, 2896, 2907, 2906
2513, 3127, 3128, 3139, 3138, 2896, 2897, 2908, 2907
2514, 3128, 3129, 3140, 3139, 2897, 2898, 2909, 2908
2515, 3129, 3130, 3141, 3140, 2898, 2899, 2910, 2909
2516, 3130, 3131, 3142, 3141, 2899, 2900, 2911, 2910
2517, 3131, 3132, 3143, 3142, 2900, 2901, 2912, 2911
2518, 3132, 3133, 3144, 3143, 2901, 2902, 2913, 2912
2519, 3133, 3134, 3145, 3144, 2902, 2903, 2914, 2913
2520, 3134, 3135, 3146, 3145, 2903, 2904, 2915, 2914
2521, 3136, 3137, 3148, 3147, 2905, 2906, 2917, 2916
2522, 3137, 3138, 3149, 3148, 2906, 2907, 2918, 2917
2523, 3138, 3139, 3150, 3149, 2907, 2908, 2919, 2918
2524, 3139, 3140, 3151, 3150, 2908, 2909, 2920, 2919
2525, 3140, 3141, 3152, 3151, 2909, 2910, 2921, 2920
2526, 3141, 3142, 3153, 3152, 2910, 2911, 2922, 2921
2527, 3142, 3143, 3154, 3153, 2911, 2912, 2923, 2922
2528, 3143, 3144, 3155, 3154, 2912, 2913, 2924, 2923
2529, 3144, 3145, 3156, 3155, 2913, 2914, 2925, 2924
2530, 3145, 3146, 3157, 3156, 2914, 2915, 2926, 2925
2531, 3147, 3148, 3159, 3158, 2916, 2917, 2928, 2927
2532, 3148, 3149, 3160, 3159, 2917, 2918, 2929, 2928
2533, 3149, 3150, 3161, 3160, 2918, 2919, 2930, 2929
2534, 3150, 3151, 3162, 3161, 2919, 2920, 2931, 2930
2535, 3151, 3152, 3163, 3162, 2920, 2921, 2932, 2931
2536, 3152, 3153, 3164, 3163, 2921, 2922, 2933, 2932
2537, 3153, 3154, 3165, 3164, 2922, 2923, 2934, 2933
2538, 3154, 3155, 3166, 3165, 2923, 2924, 2935, 2934
2539, 3155, 3156, 3167, 3166, 2924, 2925, 2936, 2935
2540, 3156, 3157, 3168, 3167, 2925, 2926, 2937, 2936
2541, 3158, 3159, 3170, 3169, 2927, 2928, 2939, 2938
2542, 3159, 3160, 3171, 3170, 2928, 2929, 2940, 2939
2543, 3160, 3161, 3172, 3171, 2929, 2930, 2941, 2940
2544, 3161, 3162, 3173, 3172, 2930, 2931, 2942, 2941
2545, 3162, 3163, 3174, 3173, 2931, 2932, 2943, 2942
2546, 3163, 3164, 3175, 3174, 2932, 2933, 2944, 2943
2547, 3164, 3165, 3176, 3175, 2933, 2934, 2945, 2944
2548, 3165, 3166, 3177, 3176, 2934, 2935, 2946, 2945
2549, 3166, 3167, 3178, 3177, 2935, 2936, 2947, 2946
2550, 3167, 3168, 3179, 3178, 2936, 2937, 2948, 2947
2551, 3169, 3170, 3181, 3180, 2938, 2939, 2950, 2949
2552, 3170, 3171, 3182, 3181, 2939, 2940, 2951, 2950
2553, 3171, 3172, 3183, 3182, 2940, 2941, 2952, 2951
2554, 3172, 3173, 3184, 3183, 2941, 2942, 2953, 2952
2555, 3173, 3174, 3185, 3184, 2942, 2943, 2954, 2953
2556, 3174, 3175, 3186, 3185, 2943, 2944, 2955, 2954
2557, 3175, 3176, 3187, 3186, 2944, 2945, 2956, 2955
2558, 3176, 3177, 3188, 3187, 2945, 2946, 2957, 2956
2559, 3177, 3178, 3189, 3188, 2946, 2947, 2958, 2957
2560, 3178, 3179, 3190, 3189, 2947, 2948, 2959, 2958
2561, 3180, 3181, 3192, 3191, 2949, 2950, 2961, 2960
2562, 3181, 3182, 3193, 3192, 2950, 2951, 2962, 2961
2563, 3182, 3183, 3194, 3193, 2951, 2952, 2963, 2962
2564, 3183, 3184, 3195, 3194, 2952, 2953, 2964, 2963
2565, 3184, 3185, 3196, 3195, 2953, 2954, 2965, 2964
2566, 3185, 3186, 3197, 3196, 2954, 2955, 2966, 2965
2567, 3186, 3187, 3198, 3197, 2955, 2956, 2967, 2966
2568, 3187, 3188, 3199, 3198, 2956, 2957, 2968, 2967
2569, 3188, 3189, 3200, 3199, 2957, 2958, 2969, 2968
2570, 3189, 3190, 3201, 3200, 2958, 2959, 2970, 2969
2571, 3191, 3192, 3203, 3202, 2960, 2961, 2972, 2971
2572, 3192, 3193, 3204, 3203, 2961, 2962, 2973, 2972
2573, 3193, 3194, 3205, 3204, 2962, 2963, 2974, 2973
2574, 3194, 3195, 3206, 3205, 2963, 2964, 2975, 2974
2575, 3195, 3196, 3207, 3206, 2964, 2965, 2976, 2975
2576, 3196, 3197, 3208, 3207, 2965, 2966, 2977, 2976
2577, 3197, 3198, 3209, 3208, 2966, 2967, 2978, 2977
2578, 3198, 3199, 3210, 3209, 2967, 2968, 2979, 2978
2579, 3199, 3200, 3211, 3210, 2968, 2969, 2980, 2979
2580, 3200, 3201, 3212, 3211, 2969, 2970, 2981, 2980
2581, 3202, 3203, 3214, 3213, 2971, 2972, 2983, 2982
2582, 3203, 3204, 3215, 3214, 2972, 2973, 2984, 2983
2583, 3204, 3205, 3216, 3215, 2973, 2974, 2985, 2984
2584, 3205, 3206, 3217, 3216, 2974, 2975, 2986, 2985
2585, 3206, 3207, 3218, 3217, 2975, 2976, 2987, 2986
2586, 3207, 3208, 3219, 3218, 2976, 2977, 2988, 2987
2587, 3208, 3209, 3220, 3219, 2977, 2978, 2989, 2988
2588, 3209, 3210, 3221, 3220, 2978, 2979, 2990, 2989
2589, 3210, 3211, 3222, 3221, 2979, 2980, 2991, 2990
2590, 3211, 3212, 3223, 3222, 2980, 2981, 2992, 2991
2591, 3213, 3214, 3225, 3224, 2982, 2983, 2994, 2993
2592, 3214, 3215, 3226, 3225, 2983, 2984, 2995, 2994
2593, 3215, 3216, 3227, 3226, 2984, 2985, 2996, 2995
2594, 3216, 3217, 3228, 3227, 2985, 2986, 2997, 2996
2595, 3217, 3218, 3229, 3228, 2986, 2987, 2998, 2997
2596, 3218, 3219, 3230, 3229, 2987, 2988, 2999, 2998
2597, 3219, 3220, 3231, 3230, 2988, 2989, 3000, 2999
2598, 3220, 3221, 3232, 3231, 2989, 2990, 3001, 3000
2599, 3221, 3222, 3233, 3232, 2990, 2991, 3002, 3001
2600, 3222, 3223, 3234, 3233, 2991, 2992, 3003, 3002
2601, 3235, 3236, 3247, 3246, 3004, 3005, 3016, 3015
2602, 3236, 3237, 3248, 3247, 3005, 3006, 3017, 3016
2603, 3237, 3238, 3249, 3248, 3006, 3007, 3018, 3017
2604, 3238, 3239, 3250, 3249, 3007, 3008, 3019, 3018
2605, 3239, 3240, 3251, 3250, 3008, 3009, 3020, 3019
2606, 3240, 3241, 3252, 3251, 3009, 3010, 3021, 3020
2607, 3241, 3242, 3253, 3252, 3010, 3011, 3022, 3021
2608, 3242, 3243, 3254, 3253, 3011, 3012, 3023, 3022
2609, 3243, 3244, 3255, 3254, 3012, 3013, 3024, 3023
2610, 3244, 3245, 3256, 3255, 3013, 3014, 3025, 3024
2611, 3246, 3247, 3258, 3257, 3015, 3016, 3027, 3026
2612, 3247, 3248, 3259, 3258, 3016, 3017, 3028, 3027
2613, 3248, 3249, 3260, 3259, 3017, 3018, 3029, 3028
2614, 3249, 3250, 3261, 3260, 3018, 3019, 3030, 3029
2615, 3250, 3251, 3262, 3261, 3019, 3020, 3031, 3030
2616, 3251, 3252, 3263, 3262, 3020, 3021, 3032, 3031
2617, 3252, 3253, 3264, 3263, 3021, 3022, 3033, 3032
2618, 3253, 3254, 3265, 3264, 3022, 3023, 3034, 3033
2619, 3254, 3255, 3266, 3265, 3023, 3024, 3035, 3034
2620, 3255, 3256, 3267, 3266, 3024, 3025, 3036, 3035
2621, 3257, 3258, 3269, 3268, 3026, 3027, 3038, 3037
2622, 3258, 3259, 3270, 3269, 3027, 3028, 3039, 3038
2623, 3259, 3260, 3271, 3270, 3028, 3029, 3040, 3039
2624, 3260, 3261, 3272, 3271, 3029, 3030, 3041, 3040
2625, 3261, 3262, 3273, 3272, 3030, 3031, 3042, 3041
2626, 3262, 3263, 3274, 3273, 3031, 3032, 3043, 3042
2627, 3263, 3264, 3275, 3274, 3032, 3033, 3044, 3043
2628, 3264, 3265, 3276, 3275, 3033, 3034, 3045, 3044
2629, 3265, 3266, 3277, 3276, 3034, 3035, 3046, 3045
2630, 3266, 3267, 3278, 3277, 3035, 3036, 3047, 3046
2631, 3268, 3269, 3280, 3279, 3037, 3038, 3049, 3048
2632, 3269, 3270, 3281, 3280, 3038, 3039, 3050, 3049
2633, 3270, 3271, 3282, 3281, 3039, 3040, 3051, 3050
2634, 3271, 3272, 3283, 3282, 3040, 3041, 3052, 3051
2635, 3272, 3273, 3284, 3283, 3041, 3042, 3053, 3052
2636, 3273, 3274, 3285, 3284, 3042, 3043, 3054, 3053
2637, 3274, 3275, 3286, 3285, 3043, 3044, 3055, 3054
2638, 3275, 3276, 3287, 3286, 3044, 3045, 3056, 3055
2639, 3276, 3277, 3288, 3287, 3045, 3046, 3057, 3056
2640, 3277, 3278, 3289, 3288, 3046, 3047, 3058, 3057
2641, 3279, 3280, 3291, 3290, 3048, 3049, 3060, 3059
2642, 3280, 3281, 3292, 3291, 3049, 3050, 3061, 3060
2643, 3281, 3282, 3293, 3292, 3050, 3051, 3062, 3061
2644, 3282, 3283, 3294, 3293, 3051, 3052, 3063, 3062
2645, 3283, 3284, 3295, 3294, 3052, 3053, 3064, 3063
2646, 3284, 3285, 3296, 3295, 3053, 3054, 3065, 3064
2647, 3285, 3286, 3297, 3296, 3054, 3055, 3066, 3065
2648, 3286, 3287, 3298, 3297, 3055, 3056, 3067, 3066
2649, 3287, 3288, 3299, 3298, 3056, 3057, 3068, 3067
2650, 3288, 3289, 3300, 3299, 3057, 3058, 3069, 3068
2651, 3290, 3291, 3302, 3301, 3059, 3060, 3071, 3070
2652, 3291, 3292, 3303, 3302, 3060, 3061, 3072, 3071
2653, 3292, 3293, 3304, 3303, 3061, 3062, 3073, 3072
2654, 3293, 3294, 3305, 3304, 3062, 3063, 3074, 3073
2655, 3294, 3295, 3306, 3305, 3063, 3064, 3075, 3074
2656, 3295, 3296, 3307, 3306, 3064, 3065, 3076, 3075
2657, 3296, 3297, 3308, 3307, 3065, 3066, 3077, 3076
2658, 3297, 3298, 3309, 3308, 3066, 3067, 3078, 3077
2659, 3298, 3299, 3310, 3309, 3067, 3068, 3079, 3078
2660, 3299, 3300, 3311, 3310, 3068, 3069, 3080, 3079
2661, 3301, 3302, 3313, 3312, 3070, 3071, 3082, 3081
2662, 3302, 3303, 3314, 3313, 3071, 3072, 3083, 3082
2663, 3303, 3304, 3315, 3314, 3072, 3073, 3084, 3083
2664, 3304, 3305, 3316, 3315, 3073, 3074, 3085, 3084
2665, 3305, 3306, 3317, 3316, 3074, 3075, 3086, 3085
2666, 3306, 3307, 3318, 3317, 3075, 3076, 3087, 3086
2667, 3307, 3308, 3319, 3318, 3076, 3077, 3088, 3087
2668, 3308, 3309, 3320, 3319, 3077, 3078, 3089, 3088
2669, 3309, 3310, 3321, 3320, 3078, 3079, 3090, 3089
2670, 3310, 3311, 3322, 3321, 3079, 3080, 3091, 3090
2671, 3312, 3313, 3324, 3323, 3081, 3082, 3093, 3092
2672, 3313, 3314, 3325, 3324, 3082, 3083, 3094, 3093
2673, 3314, 3315, 3326, 3325, 3083, 3084, 3095, 3094
2674, 3315, 3316, 3327, 3326, 3084, 3085, 3096, 3095
2675, 3316, 3317, 3328, 3327, 3085, 3086, 3097, 3096
2676, 3317, 3318, 3329, 3328, 3086, 3087, 3098, 3097
2677, 3318, 3319, 3330, 3329, 3087, 3088, 3099, 3098
2678, 3319, 3320, 3331, 3330, 3088, 3089, 3100, 3099
2679, 3320, 3321, 3332, 3331, 3089, 3090, 3101, 3100
2680, 3321, 3322, 3333, 3332, 3090, 3091, 3102, 3101
2681, 3323, 3324, 3335, 3334, 3092, 3093, 3104, 3103
2682, 3324, 3325, 3336, 3335, 3093, 3094, 3105, 3104
2683, 3325, 3326, 3337, 3336, 3094, 3095, 3106, 3105
2684, 3326, 3327, 3338, 3337, 3095, 3096, 3107, 3106
2685, 3327, 3328, 3339, 3338, 3096, 3097, 3108, 3107
2686, 3328, 3329, 3340, 3339, 3097, 3098, 3109, 3108
2687, 3329, 3330, 3341, 3340, 3098, 3099, 3110, 3109
2688, 3330, 3331, 3342, 3341, 3099, 3100, 3111, 3110
2689, 3331, 3332, 3343, 3342, 3100, 3101, 3112, 3111
2690, 3332, 3333, 3344, 3343, 3101, 3102, 3113, 3112
2691, 3334, 3335, 3346, 3345, 3103, 3104, 3115, 3114
2692, 3335, 3336, 3347, 3346, 3104, 3105, 3116, 3115
2693, 3336, 3337, 3348, 3347, 3105, 3106, 3117, 3116
2694, 3337, 3338, 3349, 3348, 3106, 3107, 3118, 3117
2695, 3338, 3339, 3350, 3349, 3107, 3108, 3119, 3118
2696, 3339, 3340, 3351, 3350, 3108, 3109, 3120, 3119
2697, 3340, 3341, 3352, 3351, 3109, 3110, 3121, 3120
2698, 3341, 3342, 3353, 3352, 3110, 3111, 3122, 3121
2699, 3342, 3343, 3354, 3353, 3111, 3112, 3123, 3122
2700, 3343, 3344, 3355, 3354, 3112, 3113, 3124, 3123
2701, 3345, 3346, 3357, 3356, 3114, 3115, 3126, 3125
2702, 3346, 3347, 3358, 3357, 3115, 3116, 3127, 3126
2703, 3347, 3348, 3359, 3358, 3116, 3117, 3128, 3127
2704, 3348, 3349, 3360, 3359, 3117, 3118, 3129, 3128
2705, 3349, 3350, 3361, 3360, 3118, 3119, 3130, 3129
2706, 3350, 3351, 3362, 3361, 3119, 3120, 3131, 3130
2707, 3351, 3352, 3363, 3362, 3120, 3121, 3132, 3131
2708, 3352, 3353, 3364, 3363, 3121, 3122, 3133, 3132
2709, 3353, 3354, 3365, 3364, 3122, 3123, 3134, 3133
2710, 3354, 3355, 3366, 3365, 3123, 3124, 3135, 3134
2711, 3356, 3357, 3368, 3367, 3125, 3126, 3137, 3136
2712, 3357, 3358, 3369, 3368, 3126, 3127, 3138, 3137
2713, 3358, 3359, 3370, 3369, 3127, 3128, 3139, 3138
2714, 3359, 3360, 3371, 3370, 3128, 3129, 3140, 3139
2715, 3360, 3361, 3372, 3371, 3129, 3130, 3141, 3140
2716, 3361, 3362, 3373, 3372, 3130, 3131, 3142, 3141
2717, 3362, 3363, 3374, 3373, 3131, 3132, 3143, 3142
2718, 3363, 3364, 3375, 3374, 3132, 3133, 3144, 3143
2719, 3364, 3365, 3376, 3375, 3133, 3134, 3145, 3144
2720, 3365, 3366, 3377, 3376, 3134, 3135, 3146, 3145
2721, 3367, 3368, 3379, 3378, 3136, 3137, 3148, 3147
2722, 3368, 3369, 3380, 3379, 3137, 3138, 3149, 3148
2723, 3369, 3370, 3381, 3380, 3138, 3139, 3150, 3149
2724, 3370, 3371, 3382, 3381, 3139, 3140, 3151, 3150
2725, 3371, 3372, 3383, 3382, 3140, 3141, 3152, 3151
2726, 3372, 3373, 3384, 3383, 3141, 3142, 3153, 3152
2727, 3373, 3374, 3385, 3384, 3142, 3143, 3154, 3153
2728, 3374, 3375, 3386, 3385, 3143, 3144, 3155, 3154
2729, 3375, 3376, 3387, 3386, 3144, 3145, 3156, 3155
2730, 3376, 3377, 3388, 3387, 3145, 3146, 3157, 3156
2731, 3378, 3379, 3390, 3389, 3147, 3148, 3159, 3158
2732, 3379, 3380, 3391, 3390, 3148, 3149, 3160, 3159
2733, 3380, 3381, 3392, 3391, 3149, 3150, 3161, 3160
2734, 3381, 3382, 3393, 3392, 3150, 3151, 3162, 3161
2735, 3382, 3383, 3394, 3393, 3151, 3152, 3163, 3162
2736, 3383, 3384, 3395, 3394, 3152, 3153, 3164, 3163
2737, 3384, 3385, 3396, 3395, 3153, 3154, 3165, 3164
2738, 3385, 3386, 3397, 3396, 3154, 3155, 3166, 3165
2739, 3386, 3387, 3398, 3397, 3155, 3156, 3167, 3166
2740, 3387, 3388, 3399, 3398, 3156, 3157, 3168, 3167
2741, 3389, 3390, 3401, 3400, 3158, 3159, 3170, 3169
2742, 3390, 3391, 3402, 3401, 3159, 3160, 3171, 3170
2743, 3391, 3392, 3403, 3402, 3160, 3161, 3172, 3171
2744, 3392, 3393, 3404, 3403, 3161, 3162, 3173, 3172
2745, 3393, 3394, 3405, 3404, 3162, 3163, 3174, 3173
2746, 3394, 3395, 3406, 3405, 3163, 3164, 3175, 3174
2747, 3395, 3396, 3407, 3406, 3164, 3165, 3176, 3175
2748, 3396, 3397, 3408, 3407, 3165, 3166, 3177, 3176
2749, 3397, 3398, 3409, 3408, 3166, 3167, 3178, 3177
2750, 3398, 3399, 3410, 3409, 3167, 3168, 3179, 3178
2751, 3400, 3401, 3412, 3411, 3169, 3170, 3181, 3180
2752, 3401, 3402, 3413, 3412, 3170, 3171, 3182, 3181
2753, 3402, 3403, 3414, 3413, 3171, 3172, 3183, 3182
2754, 3403, 3404, 3415, 3414, 3172, 3173, 3184, 3183
2755, 3404, 3405, 3416, 3415, 3173, 3174, 3185, 3184
2756, 3405, 3406, 3417, 3416, 3174, 3175, 3186, 3185
2757, 3406, 3407, 3418, 3417, 3175, 3176, 3187, 3186
2758, 3407, 3408, 3419, 3418, 3176, 3177, 3188, 3187
2759, 3408, 3409, 3420, 3419, 3177, 3178, 3189, 3188
2760, 3409, 3410, 3421, 3420, 3178, 3179, 3190, 3189
2761, 3411, 3412, 3423, 3422, 3180, 3181, 3192, 3191
2762, 3412, 3413, 3424, 3423, 3181, 3182, 3193, 3192
2763, 3413, 3414, 3425, 3424, 3182, 3183, 3194, 3193
2764, 3414, 3415, 3426, 3425, 3183, 3184, 3195, 3194
2765, 3415, 3416, 3427, 3426, 3184, 3185, 3196, 3195
2766, 3416, 3417, 3428, 3427, 3185, 3186, 3197, 3196
2767, 3417, 3418, 3429, 3428, 3186, 3187, 3198, 3197
2768, 3418, 3419, 3430, 3429, 3187, 3188, 3199, 3198
2769, 3419, 3420, 3431, 3430, 3188, 3189, 3200, 3199
2770, 3420, 3421, 3432, 3431, 3189, 3190, 3201, 3200
2771, 3422, 3423, 3434, 3433, 3191, 3192, 3203, 3202
2772, 3423, 3424, 3435, 3434, 3192, 3193, 3204, 3203
2773, 3424, 3425, 3436, 3435, 3193, 3194, 3205, 3204
2774, 3425, 3426, 3437, 3436, 3194, 3195, 3206, 3205
2775, 3426, 3427, 3438, 3437, 3195, 3196, 3207, 3206
2776, 3427, 3428, 3439, 3438, 3196, 3197, 3208, 3207
2777, 3428, 3429, 3440, 3439, 3197, 3198, 3209, 3208
2778, 3429, 3430, 3441, 3440, 3198, 3199, 3210, 3209
2779, 3430, 3431, 3442, 3441, 3199, 3200, 3211, 3210
2780, 3431, 3432, 3443, 3442, 3200, 3201, 3212, 3211
2781, 3433, 3434, 3445, 3444, 3202, 3203, 3214, 3213
2782, 3434, 3435, 3446, 3445, 3203, 3204, 3215, 3214
2783, 3435, 3436, 3447, 3446, 3204, 3205, 3216, 3215
2784, 3436, 3437, 3448, 3447, 3205, 3206, 3217, 3216
2785, 3437, 3438, 3449, 3448, 3206, 3207, 3218, 3217
2786, 3438, 3439, 3450, 3449, 3207, 3208, 3219, 3218
2787, 3439, 3440, 3451, 3450, 3208, 3209, 3220, 3219
2788, 3440, 3441, 3452, 3451, 3209, 3210, 3221, 3220
2789, 3441, 3442, 3453, 3452, 3210, 3211, 3222, 3221
2790, 3442, 3443, 3454, 3453, 3211, 3212, 3223, 3222
2791, 3444, 3445, 3456, 3455, 3213, 3214, 3225, 3224
2792, 3445, 3446, 3457, 3456, 3214, 3215, 3226, 3225
2793, 3446, 3447, 3458, 3457, 3215, 3216, 3227, 3226
2794, 3447, 3448, 3459, 3458, 3216, 3217, 3228, 3227
2795, 3448, 3449, 3460, 3459, 3217, 3218, 3229, 3228
2796, 3449, 3450, 3461, 3460, 3218, 3219, 3230, 3229
2797, 3450, 3451, 3462, 3461, 3219, 3220, 3231, 3230
2798, 3451, 3452, 3463, 3462, 3220, 3221, 3232, 3231
2799, 3452, 3453, 3464, 3463, 3221, 3222, 3233, 3232
2800, 3453, 3454, 3465, 3464, 3222, 3223, 3234, 3233
2801, 3466, 3467, 3478, 3477, 3235, 3236, 3247, 3246
2802, 3467, 3468, 3479, 3478, 3236, 3237, 3248, 3247
2803, 3468, 3469, 3480, 3479, 3237, 3238, 3249, 3248
2804, 3469, 3470, 3481, 3480, 3238, 3239, 3250, 3249
2805, 3470, 3471, 3482, 3481, 3239, 3240, 3251, 3250
2806, 3471, 3472, 3483, 3482, 3240, 3241, 3252, 3251
2807, 3472, 3473, 3484, 3483, 3241, 3242, 3253, 3252
2808, 3473, 3474, 3485, 3484, 3242, 3243, 3254, 3253
2809, 3474, 3475, 3486, 3485, 3243, 3244, 3255, 3254
2810, 3475, 3476, 3487, 3486, 3244, 3245, 3256, 3255
2811, 3477, 3478, 3489, 3488, 3246, 3247, 3258, 3257
2812, 3478, 3479, 3490, 3489, 3247, 3248, 3259, 3258
2813, 3479, 3480, 3491, 3490, 3248, 3249, 3260, 3259
2814, 3480, 3481, 3492, 3491, 3249, 3250, 3261, 3260
2815, 3481, 3482, 3493, 3492, 3250, 3251, 3262, 3261
2816, 3482, 3483, 3494, 3493, 3251, 3252, 3263, 3262
2817, 3483, 3484, 3495, 3494, 3252, 3253, 3264, 3263
2818, 3484, 3485, 3496, 3495, 3253, 3254, 3265, 3264
2819, 3485, 3486, 3497, 3496, 3254, 3255, 3266, 3265
2820, 3486, 3487, 3498, 3497, 3255, 3256, 3267, 3266
2821, 3488, 3489, 3500, 3499, 3257, 3258, 3269, 3268
2822, 3489, 3490, 3501, 3500, 3258, 3259, 3270, 3269
2823, 3490, 3491, 3502, 3501, 3259, 3260, 3271, 3270
2824, 3491, 3492, 3503, 3502, 3260, 3261, 3272, 3271
2825, 3492, 3493, 3504, 3503, 3261, 3262, 3273, 3272
2826, 3493, 3494, 3505, 3504, 3262, 3263, 3274, 3273
2827, 3494, 3495, 3506, 3505, 3263, 3264, 3275, 3274
2828, 3495, 3496, 3507, 3506, 3264, 3265, 3276, 3275
2829, 3496, 3497, 3508, 3507, 3265, 3266, 3277, 3276
2830, 3497, 3498, 3509, 3508, 3266, 3267, 3278, 3277
2831, 3499, 3500, 3511, 3510, 3268, 3269, 3280, 3279
2832, 3500, 3501, 3512, 3511, 3269, 3270, 3281, 3280
2833, 3501, 3502, 3513, 3512, 3270, 3271, 3282, 3281
2834, 3502, 3503, 3514, 3513, 3271, 3272, 3283, 3282
2835, 3503, 3504, 3515, 3514, 3272, 3273, 3284, 3283
2836, 3504, 3505, 3516, 3515, 3273, 3274, 3285, 3284
2837, 3505, 3506, 3517, 3516, 3274, 3275, 3286, 3285
2838, 3506, 3507, 3518, 3517, 3275, 3276, 3287, 3286
2839, 3507, 3508, 3519, 3518, 3276, 3277, 3288, 3287
2840, 3508, 3509, 3520, 3519, 3277, 3278, 3289, 3288
2841, 3510, 3511, 3522, 3521, 3279, 3280, 3291, 3290
2842, 3511, 3512, 3523, 3522, 3280, 3281, 3292, 3291
2843, 3512, 3513, 3524, 3523, 3281, 3282, 3293, 3292
2844, 3513, 3514, 3525, 3524, 3282, 3283, 3294, 3293
2845, 3514, 3515, 3526, 3525, 3283, 3284, 3295, 3294
2846, 3515, 3516, 3527, 3526, 3284, 3285, 3296, 3295
2847, 3516, 3517, 3528, 3527, 3285, 3286, 3297, 3296
2848, 3517, 3518, 3529, 3528, 3286, 3287, 3298, 3297
2849, 3518, 3519, 3530, 3529, 3287, 3288, 3299, 3298
2850, 3519, 3520, 3531, 3530, 3288, 3289, 3300, 3299
2851, 3521, 3522, 3533, 3532, 3290, 3291, 3302, 3301
2852, 3522, 3523, 3534, 3533, 3291, 3292, 3303, 3302
2853, 3523, 3524, 3535, 3534, 3292, 3293, 3304, 3303
2854, 3524, 3525, 3536, 3535, 3293, 3294, 3305, 3304
2855, 3525, 3526, 3537, 3536, 3294, 3295, 3306, 3305
2856, 3526, 3527, 3538, 3537, 3295, 3296, 3307, 3306
2857, 3527, 3528, 3539, 3538, 3296, 3297, 3308, 3307
2858, 3528, 3529, 3540, 3539, 3297, 3298, 3309, 3308
2859, 3529, 3530, 3541, 3540, 3298, 3299, 3310, 3309
2860, 3530, 3531, 3542, 3541, 3299, 3300, 3311, 3310
2861, 3532, 3533, 3544, 3543, 3301, 3302, 3313, 3312
2862, 3533, 3534, 3545, 3544, 3302, 3303, 3314, 3313
2863, 3534, 3535, 3546, 3545, 3303, 3304, 3315, 3314
2864, 3535, 3536, 3547, 3546, 3304, 3305, 3316, 3315
2865, 3536, 3537, 3548, 3547, 3305, 3306, 3317, 3316
2866, 3537, 3538, 3549, 3548, 3306, 3307, 3318, 3317
2867, 3538, 3539, 3550, 3549, 3307, 3308, 3319, 3318
2868, 3539, 3540, 3551, 3550, 3308, 3309, 3320, 3319
2869, 3540, 3541, 3552, 3551, 3309, 3310, 3321, 3320
2870, 3541, 3542, 3553, 3552, 3310, 3311, 3322, 3321
2871, 3543, 3544, 3555, 3554, 3312, 3313, 3324, 3323
2872, 3544, 3545, 3556, 3555, 3313, 3314, 3325, 3324
2873, 3545, 3546, 3557, 3556, 3314, 3315, 3326, 3325
2874, 3546, 3547, 3558, 3557, 3315, 3316, 3327, 3326
2875, 3547, 3548, 3559, 3558, 3316, 3317, 3328, 3327
2876, 3548, 3549, 3560, 3559, 3317, 3318, 3329, 3328
2877, 3549, 3550, 3561, 3560, 3318, 3319, 3330, 3329
2878, 3550, 3551, 3562, 3561, 3319, 3320, 3331, 3330
2879, 3551, 3552, 3563, 3562, 3320, 3321, 3332, 3331
2880, 3552, 3553, 3564, 3563, 3321, 3322, 3333, 3332
2881, 3554, 3555, 3566, 3565, 3323, 3324, 3335, 3334
2882, 3555, 3556, 3567, 3566, 3324, 3325, 3336, 3335
2883, 3556, 3557, 3568, 3567, 3325, 3326, 3337, 3336
2884, 3557, 3558, 3569, 3568, 3326, 3327, 3338, 3337
2885, 3558, 3559, 3570, 3569, 3327, 3328, 3339, 3338
2886, 3559, 3560, 3571, 3570, 3328, 3329, 3340, 3339
2887, 3560, 3561, 3572, 3571, 3329, 3330, 3341, 3340
2888, 3561, 3562, 3573, 3572, 3330, 3331, 3342, 3341
2889, 3562, 3563, 3574, 3573, 3331, 3332, 3343, 3342
2890, 3563, 3564, 3575, 3574, 3332, 3333, 3344, 3343
2891, 3565, 3566, 3577, 3576, 3334, 3335, 3346, 3345
2892, 3566, 3567, 3578, 3577, 3335, 3336, 3347, 3346
2893, 3567, 3568, 3579, 3578, 3336, 3337, 3348, 3347
2894, 3568, 3569, 3580, 3579, 3337, 3338, 3349, 3348
2895, 3569, 3570, 3581, 3580, 3338, 3339, 3350, 3349
2896, 3570, 3571, 3582, 3581, 3339, 3340, 3351, 3350
2897, 3571, 3572, 3583, 3582, 3340, 3341, 3352, 3351
2898, 3572, 3573, 3584, 3583, 3341, 3342, 3353, 3352
2899, 3573, 3574, 3585, 3584, 3342, 3343, 3354, 3353
2900, 3574, 3575, 3586, 3585, 3343, 3344, 3355, 3354
2901, 3576, 3577, 3588, 3587, 3345, 3346, 3357, 3356
2902, 3577, 3578, 3589, 3588, 3346, 3347, 3358, 3357
2903, 3578, 3579, 3590, 3589, 3347, 3348, 3359, 3358
2904, 3579, 3580, 3591, 3590, 3348, 3349, 3360, 3359
2905, 3580, 3581, 3592, 3591, 3349, 3350, 3361, 3360
2906, 3581, 3582, 3593, 3592, 3350, 3351, 3362, 3361
2907, 3582, 3583, 3594, 3593, 3351, 3352, 3363, 3362
2908, 3583, 3584, 3595, 3594, 3352, 3353, 3364, 3363
2909, 3584, 3585, 3596, 3595, 3353, 3354, 3365, 3364
2910, 3585, 3586, 3597, 3596, 3354, 3355, 3366, 3365
2911, 3587, 3588, 3599, 3598, 3356, 3357, 3368, 3367
2912, 3588, 3589, 3600, 3599, 3357, 3358, 3369, 3368
2913, 3589, 3590, 3601, 3600, 3358, 3359, 3370, 3369
2914, 3590, 3591, 3602, 3601, 3359, 3360, 3371, 3370
2915, 3591, 3592, 3603, 3602, 3360, 3361, 3372, 3371
2916, 3592, 3593, 3604, 3603, 3361, 3362, 3373, 3372
2917, 3593, 3594, 3605, 3604, 3362, 3363, 3374, 3373
2918, 3594, 3595, 3606, 3605, 3363, 3364, 3375, 3374
2919, 3595, 3596, 3607, 3606, 3364, 3365, 3376, 3375
2920, 3596, 3597, 3608, 3607, 3365, 3366, 3377, 3376
2921, 3598, 3599, 3610, 3609, 3367, 3368, 3379, 3378
2922, 3599, 3600, 3611, 3610, 3368, 3369, 3380, 3379
2923, 3600, 3601, 3612, 3611, 3369, 3370, 3381, 3380
2924, 3601, 3602, 3613, 3612, 3370, 3371, 3382, 3381
2925, 3602, 3603, 3614, 3613, 3371, 3372, 3383, 3382
2926, 3603, 3604, 3615, 3614, 3372, 3373, 3384, 3383
2927, 3604, 3605, 3616, 3615, 3373, 3374, 3385, 3384
2928, 3605, 3606, 3617, 3616, 3374, 3375, 3386, 3385
2929, 3606, 3607, 3618, 3617, 3375, 3376, 3387, 3386
2930, 3607, 3608, 3619, 3618, 3376, 3377, 3388, 3387
2931, 3609, 3610, 3621, 3620, 3378, 3379, 3390, 3389
2932, 3610, 3611, 3622, 3621, 3379, 3380, 3391, 3390
2933, 3611, 3612, 3623, 3622, 3380, 3381, 3392, 3391
2934, 3612, 3613, 3624, 3623, 3381, 3382, 3393, 3392
2935, 3613, 3614, 3625, 3624, 3382, 3383, 3394, 3393
2936, 3614, 3615, 3626, 3625, 3383, 3384, 3395, 3394
2937, 3615, 3616, 3627, 3626, 3384, 3385, 3396, 3395
2938, 3616, 3617, 3628, 3627, 3385, 3386, 3397, 3396
2939, 3617, 3618, 3629, 3628, 3386, 3387, 3398, 3397
2940, 3618, 3619, 3630, 3629, 3387, 3388, 3399, 3398
2941, 3620, 3621, 3632, 3631, 3389, 3390, 3401, 3400
2942, 3621, 3622, 3633, 3632, 3390, 3391, 3402, 3401
2943, 3622, 3623, 3634, 3633, 3391, 3392, 3403, 3402
2944, 3623, 3624, 3635, 3634, 3392, 3393, 3404, 3403
2945, 3624, 3625, 3636, 3635, 3393, 3394, 3405, 3404
2946, 3625, 3626, 3637, 3636, 3394, 3395, 3406, 3405
2947, 3626, 3627, 3638, 3637, 3395, 3396, 3407, 3406
2948, 3627, 3628, 3639, 3638, 3396, 3397, 3408, 3407
2949, 3628, 3629, 3640, 3639, 3397, 3398, 3409, 3408
2950, 3629, 3630, 3641, 3640, 3398, 3399, 3410, 3409
2951, 3631, 3632, 3643, 3642, 3400, 3401, 3412, 3411
2952, 3632, 3633, 3644, 3643, 3401, 3402, 3413, 3412
2953, 3633, 3634, 3645, 3644, 3402, 3403, 3414, 3413
2954, 3634, 3635, 3646, 3645, 3403, 3404, 3415, 3414
2955, 3635, 3636, 3647, 3646, 3404, 3405, 3416, 3415
2956, 3636, 3637, 3648, 3647, 3405, 3406, 3417, 3416
2957, 3637, 3638, 3649, 3648, 3406, 3407, 3418, 3417
2958, 3638, 3639, 3650, 3649, 3407, 3408, 3419, 3418
2959, 3639, 3640, 3651, 3650, 3408, 3409, 3420, 3419
2960, 3640, 3641, 3652, 3651, 3409, 3410, 3421, 3420
2961, 3642, 3643, 3654, 3653, 3411, 3412, 3423, 3422
2962, 3643, 3644, 3655, 3654, 3412, 3413, 3424, 3423
2963, 3644, 3645, 3656, 3655, 3413, 3414, 3425, 3424
2964, 3645, 3646, 3657, 3656, 3414, 3415, 3426, 3425
2965, 3646, 3647, 3658, 3657, 3415, 3416, 3427, 3426
2966, 3647, 3648, 3659, 3658, 3416, 3417, 3428, 3427
2967, 3648, 3649, 3660, 3659, 3417, 3418, 3429, 3428
2968, 3649, 3650, 3661, 3660, 3418, 3419, 3430, 3429
2969, 3650, 3651, 3662, 3661, 3419, 3420, 3431, 3430
2970, 3651, 3652, 3663, 3662, 3420, 3421, 3432, 3431
2971, 3653, 3654, 3665, 3664, 3422, 3423, 3434, 3433
2972, 3654, 3655, 3666, 3665, 3423, 3424, 3435, 3434
2973, 3655, 3656, 3667, 3666, 3424, 3425, 3436, 3435
2974, 3656, 3657, 3668, 3667, 3425, 3426, 3437, 3436
2975, 3657, 3658, 3669, 3668, 3426, 3427, 3438, 3437
2976, 3658, 3659, 3670, 3669, 3427, 3428, 3439, 3438
2977, 3659, 3660, 3671, 3670, 3428, 3429, 3440, 3439
2978, 3660, 3661, 3672, 3671, 3429, 3430, 3441, 3440
2979, 3661, 3662, 3673, 3672, 3430, 3431, 3442, 3441
2980, 3662, 3663, 3674, 3673, 3431, 3432, 3443, 3442
2981, 3664, 3665, 3676, 3675, 3433, 3434, 3445, 3444
2982, 3665, 3666, 3677, 3676, 3434, 3435, 3446, 3445
2983, 3666, 3667, 3678, 3677, 3435, 3436, 3447, 3446
2984, 3667, 3668, 3679, 3678, 3436, 3437, 3448, 3447
2985, 3668, 3669, 3680, 3679, 3437, 3438, 3449, 3448
2986, 3669, 3670, 3681, 3680, 3438, 3439, 3450, 3449
2987, 3670, 3671, 3682, 3681, 3439, 3440, 3451, 3450
2988, 3671, 3672, 3683, 3682, 3440, 3441, 3452, 3451
2989, 3672, 3673, 3684, 3683, 3441, 3442, 3453, 3452
2990, 3673, 3674, 3685, 3684, 3442, 3443, 3454, 3453
2991, 3675, 3676, 3687, 3686, 3444, 3445, 3456, 3455
2992, 3676, 3677, 3688, 3687, 3445, 3446, 3457, 3456
2993, 3677, 3678, 3689, 3688, 3446, 3447, 3458, 3457
2994, 3678, 3679, 3690, 3689, 3447, 3448, 3459, 3458
2995, 3679, 3680, 3691, 3690, 3448, 3449, 3460, 3459
2996, 3680, 3681, 3692, 3691, 3449, 3450, 3461, 3460
2997, 3681, 3682, 3693, 3692, 3450, 3451, 3462, 3461
2998, 3682, 3683, 3694, 3693, 3451, 3452, 3463, 3462
2999, 3683, 3684, 3695, 3694, 3452, 3453, 3464, 3463
3000, 3684, 3685, 3696, 3695, 3453, 3454, 3465, 3464
3001, 3697, 3698, 3709, 3708, 3466, 3467, 3478, 3477
3002, 3698, 3699, 3710, 3709, 3467, 3468, 3479, 3478
3003, 3699, 3700, 3711, 3710, 3468, 3469, 3480, 3479
3004, 3700, 3701, 3712, 3711, 3469, 3470, 3481, 3480
3005, 3701, 3702, 3713, 3712, 3470, 3471, 3482, 3481
3006, 3702, 3703, 3714, 3713, 3471, 3472, 3483, 3482
3007, 3703, 3704, 3715, 3714, 3472, 3473, 3484, 3483
3008, 3704, 3705, 3716, 3715, 3473, 3474, 3485, 3484
3009, 3705, 3706, 3717, 3716, 3474, 3475, 3486, 3485
3010, 3706, 3707, 3718, 3717, 3475, 3476, 3487, 3486
3011, 3708, 3709, 3720, 3719, 3477, 3478, 3489, 3488
3012, 3709, 3710, 3721, 3720, 3478, 3479, 3490, 3489
3013, 3710, 3711, 3722, 3721, 3479, 3480, 3491, 3490
3014, 3711, 3712, 3723, 3722, 3480, 3481, 3492, 3491
3015, 3712, 3713, 3724, 3723, 3481, 3482, 3493, 3492
3016, 3713, 3714, 3725, 3724, 3482, 3483, 3494, 3493
3017, 3714, 3715, 3726, 3725, 3483, 3484, 3495, 3494
3018, 3715, 3716, 3727, 3726, 3484, 3485, 3496, 3495
3019, 3716, 3717, 3728, 3727, 3485, 3486, 3497, 3496
3020, 3717, 3718, 3729, 3728, 3486, 3487, 3498, 3497
3021, 3719, 3720, 3731, 3730, 3488, 3489, 3500, 3499
3022, 3720, 3721, 3732, 3731, 3489, 3490, 3501, 3500
3023, 3721, 3722, 3733, 3732, 3490, 3491, 3502, 3501
3024, 3722, 3723, 3734, 3733, 3491, 3492, 3503, 3502
3025, 3723, 3724, 3735, 3734, 3492, 3493, 3504, 3503
3026, 3724, 3725, 3736, 3735, 3493, 3494, 3505, 3504
3027, 3725, 3726, 3737, 3736, 3494, 3495, 3506, 3505
3028, 3726, 3727, 3738, 3737, 3495, 3496, 3507, 3506
3029, 3727, 3728, 3739, 3738, 3496, 3497, 3508, 3507
3030, 3728, 3729, 3740, 3739, 3497, 3498, 3509, 3508
3031, 3730, 3731, 3742, 3741, 3499, 3500, 3511, 3510
3032, 3731, 3732, 3743, 3742, 3500, 3501, 3512, 3511
3033, 3732, 3733, 3744, 3743, 3501, 3502, 3513, 3512
3034, 3733, 3734, 3745, 3744, 3502, 3503, 3514, 3513
3035, 3734, 3735, 3746, 3745, 3503, 3504, 3515, 3514
3036, 3735, 3736, 3747, 3746, 3504, 3505, 3516, 3515
3037, 3736, 3737, 3748, 3747, 3505, 3506, 3517, 3516
3038, 3737, 3738, 3749, 3748, 3506, 3507, 3518, 3517
3039, 3738, 3739, 3750, 3749, 3507, 3508, 3519, 3518
3040, 3739, 3740, 3751, 3750, 3508, 3509, 3520, 3519
3041, 3741, 3742, 3753, 3752, 3510, 3511, 3522, 3521
3042, 3742, 3743, 3754, 3753, 3511, 3512, 3523, 3522
3043, 3743, 3744, 3755, 3754, 3512, 3513, 3524, 3523
3044, 3744, 3745, 3756, 3755, 3513, 3514, 3525, 3524
3045, 3745, 3746, 3757, 3756, 3514, 3515, 3526, 3525
3046, 3746, 3747, 3758, 3757, 3515, 3516, 3527, 3526
3047, 3747, 3748, 3759, 3758, 3516, 3517, 3528, 3527
3048, 3748, 3749, 3760, 3759, 3517, 3518, 3529, 3528
3049, 3749, 3750, 3761, 3760, 3518, 3519, 3530, 3529
3050, 3750, 3751, 3762, 3761, 3519, 3520, 3531, 3530
3051, 3752, 3753, 3764, 3763, 3521, 3522, 3533, 3532
3052, 3753, 3754, 3765, 3764, 3522, 3523, 3534, 3533
3053, 3754, 3755, 3766, 3765, 3523, 3524, 3535, 3534
3054, 3755, 3756, 3767, 3766, 3524, 3525, 3536, 3535
3055, 3756, 3757, 3768, 3767, 3525, 3526, 3537, 3536
3056, 3757, 3758, 3769, 3768, 3526, 3527, 3538, 3537
3057, 3758, 3759, 3770, 3769, 3527, 3528, 3539, 3538
3058, 3759, 3760, 3771, 3770, 3528, 3529, 3540, 3539
3059, 3760, 3761, 3772, 3771, 3529, 3530, 3541, 3540
3060, 3761, 3762, 3773, 3772, 3530, 3531, 3542, 3541
3061, 3763, 3764, 3775, 3774, 3532, 3533, 3544, 3543
3062, 3764, 3765, 3776, 3775, 3533, 3534, 3545, 3544
3063, 3765, 3766, 3777, 3776, 3534, 3535, 3546, 3545
3064, 3766, 3767, 3778, 3777, 3535, 3536, 3547, 3546
3065, 3767, 3768, 3779, 3778, 3536, 3537, 3548, 3547
3066, 3768, 3769, 3780, 3779, 3537, 3538, 3549, 3548
3067, 3769, 3770, 3781, 3780, 3538, 3539, 3550, 3549
3068, 3770, 3771, 3782, 3781, 3539, 3540, 3551, 3550
3069, 3771, 3772, 3783, 3782, 3540, 3541, 3552, 3551
3070, 3772, 3773, 3784, 3783, 3541, 3542, 3553, 3552
3071, 3774, 3775, 3786, 3785, 3543, 3544, 3555, 3554
3072, 3775, 3776, 3787, 3786, 3544, 3545, 3556, 3555
3073, 3776, 3777, 3788, 3787, 3545, 3546, 3557, 3556
3074, 3777, 3778, 3789, 3788, 3546, 3547, 3558, 3557
3075, 3778, 3779, 3790, 3789, 3547, 3548, 3559, 3558
3076, 3779, 3780, 3791, 3790, 3548, 3549, 3560, 3559
3077, 3780, 3781, 3792, 3791, 3549, 3550, 3561, 3560
3078, 3781, 3782, 3793, 3792, 3550, 3551, 3562, 3561
3079, 3782, 3783, 3794, 3793, 3551, 3552, 3563, 3562
3080, 3783, 3784, 3795, 3794, 3552, 3553, 3564, 3563
3081, 3785, 3786, 3797, 3796, 3554, 3555, 3566, 3565
3082, 3786, 3787, 3798, 3797, 3555, 3556, 3567, 3566
3083, 3787, 3788, 3799, 3798, 3556, 3557, 3568, 3567
3084, 3788, 3789, 3800, 3799, 3557, 3558, 3569, 3568
3085, 3789, 3790, 3801, 3800, 3558, 3559, 3570, 3569
3086, 3790, 3791, 3802, 3801, 3559, 3560, 3571, 3570
3087, 3791, 3792, 3803, 3802, 3560, 3561, 3572, 3571
3088, 3792, 3793, 3804, 3803, 3561, 3562, 3573, 3572
3089, 3793, 3794, 3805, 3804, 3562, 3563, 3574, 3573
3090, 3794, 3795, 3806, 3805, 3563, 3564, 3575, 3574
3091, 3796, 3797, 3808, 3807, 3565, 3566, 3577, 3576
3092, 3797, 3798, 3809, 3808, 3566, 3567, 3578, 3577
3093, 3798, 3799, 3810, 3809, 3567, 3568, 3579, 3578
3094, 3799, 3800, 3811, 3810, 3568, 3569, 3580, 3579
3095, 3800, 3801, 3812, 3811, 3569, 3570, 3581, 3580
3096, 3801, 3802, 3813, 3812, 3570, 3571, 3582, 3581
3097, 3802, 3803, 3814, 3813, 3571, 3572, 3583, 3582
3098, 3803, 3804, 3815, 3814, 3572, 3573, 3584, 3583
3099, 3804, 3805, 3816, 3815, 3573, 3574, 3585, 3584
3100, 3805, 3806, 3817, 3816, 3574, 3575, 3586, 3585
3101, 3807, 3808, 3819, 3818, 3576, 3577, 3588, 3587
3102, 3808, 3809, 3820, 3819, 3577, 3578, 3589, 3588
3103, 3809, 3810, 3821, 3820, 3578, 3579, 3590, 3589
3104, 3810, 3811, 3822, 3821, 3579, 3580, 3591, 3590
3105, 3811, 3812, 3823, 3822, 3580, 3581, 3592, 3591
3106, 3812, 3813, 3824, 3823, 3581, 3582, 3593, 3592
3107, 3813, 3814, 3825, 3824, 3582, 3583, 3594, 3593
3108, 3814, 3815, 3826, 3825, 3583, 3584, 3595, 3594
3109, 3815, 3816, 3827, 3826, 3584, 3585, 3596, 3595
3110, 3816, 3817, 3828, 3827, 3585, 3586, 3597, 3596
3111, 3818, 3819, 3830, 3829, 3587, 3588, 3599, 3598
3112, 3819, 3820, 3831, 3830, 3588, 3589, 3600, 3599
3113, 3820, 3821, 3832, 3831, 3589, 3590, 3601, 3600
3114, 3821, 3822, 3833, 3832, 3590, 3591, 3602, 3601
3115, 3822, 3823, 3834, 3833, 3591, 3592, 3603, 3602
3116, 3823, 3824, 3835, 3834, 3592, 3593, 3604, 3603
3117, 3824, 3825, 3836, 3835, 3593, 3594, 3605, 3604
3118, 3825, 3826, 3837, 3836, 3594, 3595, 3606, 3605
3119, 3826, 3827, 3838, 3837, 3595, 3596, 3607, 3606
3120, 3827, 3828, 3839, 3838, 3596, 3597, 3608, 3607
3121, 3829, 3830, 3841, 3840, 3598, 3599, 3610, 3609
3122, 3830, 3831, 3842, 3841, 3599, 3600, 3611, 3610
3123, 3831, 3832, 3843, 3842, 3600, 3601, 3612, 3611
3124, 3832, 3833, 3844, 3843, 3601, 3602, 3613, 3612
3125, 3833, 3834, 3845, 3844, 3602, 3603, 3614, 3613
3126, 3834, 3835, 3846, 3845, 3603, 3604, 3615, 3614
3127, 3835, 3836, 3847, 3846, 3604, 3605, 3616, 3615
3128, 3836, 3837, 3848, 3847, 3605, 3606, 3617, 3616
3129, 3837, 3838, 3849, 3848, 3606, 3607, 3618, 3617
3130, 3838, 3839, 3850, 3849, 3607, 3608, 3619, 3618
3131, 3840, 3841, 3852, 3851, 3609, 3610, 3621, 3620
3132, 3841, 3842, 3853, 3852, 3610, 3611, 3622, 3621
3133, 3842, 3843, 3854, 3853, 3611, 3612, 3623, 3622
3134, 3843, 3844, 3855, 3854, 3612, 3613, 3624, 3623
3135, 3844, 3845, 3856, 3855, 3613, 3614, 3625, 3624
3136, 3845, 3846, 3857, 3856, 3614, 3615, 3626, 3625
3137, 3846, 3847, 3858, 3857, 3615, 3616, 3627, 3626
3138, 3847, 3848, 3859, 3858, 3616, 3617, 3628, 3627
3139, 3848, 3849, 3860, 3859, 3617, 3618, 3629, 3628
3140, 3849, 3850, 3861, 3860, 3618, 3619, 3630, 3629
3141, 3851, 3852, 3863, 3862, 3620, 3621, 3632, 3631
3142, 3852, 3853, 3864, 3863, 3621, 3622, 3633, 3632
3143, 3853, 3854, 3865, 3864, 3622, 3623, 3634, 3633
3144, 3854, 3855, 3866, 3865, 3623, 3624, 3635, 3634
3145, 3855, 3856, 3867, 3866, 3624, 3625, 3636, 3635
3146, 3856, 3857, 3868, 3867, 3625, 3626, 3637, 3636
3147, 3857, 3858, 3869, 3868, 3626, 3627, 3638, 3637
3148, 3858, 3859, 3870, 3869, 3627, 3628, 3639, 3638
3149, 3859, 3860, 3871, 3870, 3628, 3629, 3640, 3639
3150, 3860, 3861, 3872, 3871, 3629, 3630, 3641, 3640
3151, 3862, 3863, 3874, 3873, 3631, 3632, 3643, 3642
3152, 3863, 3864, 3875, 3874, 3632, 3633, 3644, 3643
3153, 3864, 3865, 3876, 3875, 3633, 3634, 3645, 3644
3154, 3865, 3866, 3877, 3876, 3634, 3635, 3646, 3645
3155, 3866, 3867, 3878, 3877, 3635, 3636, 3647, 3646
3156, 3867, 3868, 3879, 3878, 3636, 3637, 3648, 3647
3157, 3868, 3869, 3880, 3879, 3637, 3638, 3649, 3648
3158, 3869, 3870, 3881, 3880, 3638, 3639, 3650, 3649
3159, 3870, 3871, 3882, 3881, 3639, 3640, 3651, 3650
3160, 3871, 3872, 3883, 3882, 3640, 3641, 3652, 3651
3161, 3873, 3874, 3885, 3884, 3642, 3643, 3654, 3653
3162, 3874, 3875, 3886, 3885, 3643, 3644, 3655, 3654
3163, 3875, 3876, 3887, 3886, 3644, 3645, 3656, 3655
3164, 3876, 3877, 3888, 3887, 3645, 3646, 3657, 3656
3165, 3877, 3878, 3889, 3888, 3646, 3647, 3658, 3657
3166, 3878, 3879, 3890, 3889, 3647, 3648, 3659, 3658
3167, 3879, 3880, 3891, 3890, 3648, 3649, 3660, 3659
3168, 3880, 3881, 3892, 3891, 3649, 3650, 3661, 3660
3169, 3881, 3882, 3893, 3892, 3650, 3651, 3662, 3661
3170, 3882, 3883, 3894, 3893, 3651, 3652, 3663, 3662
3171, 3884, 3885, 3896, 3895, 3653, 3654, 3665, 3664
3172, 3885, 3886, 3897, 3896, 3654, 3655, 3666, 3665
3173, 3886, 3887, 3898, 3897, 3655, 3656, 3667, 3666
3174, 3887, 3888, 3899, 3898, 3656, 3657, 3668, 3667
3175, 3888, 3889, 3900, 3899, 3657, 3658, 3669, 3668
3176, 3889, 3890, 3901, 3900, 3658, 3659, 3670, 3669
3177, 3890, 3891, 3902, 3901, 3659, 3660, 3671, 3670
3178, 3891, 3892, 3903, 3902, 3660, 3661, 3672, 3671
3179, 3892, 3893, 3904, 3903, 3661, 3662, 3673, 3672
3180, 3893, 3894, 3905, 3904, 3662, 3663, 3674, 3673
3181, 3895, 3896, 3907, 3906, 3664, 3665, 3676, 3675
3182, 3896, 3897, 3908, 3907, 3665, 3666, 3677, 3676
3183, 3897, 3898, 3909, 3908, 3666, 3667, 3678, 3677
3184, 3898, 3899, 3910, 3909, 3667, 3668, 3679, 3678
3185, 3899, 3900, 3911, 3910, 3668, 3669, 3680, 3679
3186, 3900, 3901, 3912, 3911, 3669, 3670, 3681, 3680
3187, 3901, 3902, 3913, 3912, 3670, 3671, 3682, 3681
3188, 3902, 3903, 3914, 3913, 3671, 3672, 3683, 3682
3189, 3903, 3904, 3915, 3914, 3672, 3673, 3684, 3683
3190, 3904, 3905, 3916, 3915, 3673, 3674, 3685, 3684
3191, 3906, 3907, 3918, 3917, 3675, 3676, 3687, 3686
3192, 3907, 3908, 3919, 3918, 3676, 3677, 3688, 3687
3193, 3908, 3909, 3920, 3919, 3677, 3678, 3689, 3688
3194, 3909, 3910, 3921, 3920, 3678, 3679, 3690, 3689
3195, 3910, 3911, 3922, 3921, 3679, 3680, 3691, 3690
3196, 3911, 3912, 3923, 3922, 3680, 3681, 3692, 3691
3197, 3912, 3913, 3924, 3923, 3681, 3682, 3693, 3692
3198, 3913, 3914, 3925, 3924, 3682, 3683, 3694, 3693
3199, 3914, 3915, 3926, 3925, 3683, 3684, 3695, 3694
3200, 3915, 3916, 3927, 3926, 3684, 3685, 3696, 3695
3201, 3928, 3929, 3940, 3939, 3697, 3698, 3709, 3708
3202, 3929, 3930, 3941, 3940, 3698, 3699, 3710, 3709
3203, 3930, 3931, 3942, 3941, 3699, 3700, 3711, 3710
3204, 3931, 3932, 3943, 3942, 3700, 3701, 3712, 3711
3205, 3932, 3933, 3944, 3943, 3701, 3702, 3713, 3712
3206, 3933, 3934, 3945, 3944, 3702, 3703, 3714, 3713
3207, 3934, 3935, 3946, 3945, 3703, 3704, 3715, 3714
3208, 3935, 3936, 3947, 3946, 3704, 3705, 3716, 3715
3209, 3936, 3937, 3948, 3947, 3705, 3706, 3717, 3716
3210, 3937, 3938, 3949, 3948, 3706, 3707, 3718, 3717
3211, 3939, 3940, 3951, 3950, 3708, 3709, 3720, 3719
3212, 3940, 3941, 3952, 3951, 3709, 3710, 3721, 3720
3213, 3941, 3942, 3953, 3952, 3710, 3711, 3722, 3721
3214, 3942, 3943, 3954, 3953, 3711, 3712, 3723, 3722
3215, 3943, 3944, 3955, 3954, 3712, 3713, 3724, 3723
3216, 3944, 3945, 3956, 3955, 3713, 3714, 3725, 3724
3217, 3945, 3946, 3957, 3956, 3714, 3715, 3726, 3725
3218, 3946, 3947, 3958, 3957, 3715, 3716, 3727, 3726
3219, 3947, 3948, 3959, 3958, 3716, 3717, 3728, 3727
3220, 3948, 3949, 3960, 3959, 3717, 3718, 3729, 3728
3221, 3950, 3951, 3962, 3961, 3719, 3720, 3731, 3730
3222, 3951, 3952, 3963, 3962, 3720, 3721, 3732, 3731
3223, 3952, 3953, 3964, 3963, 3721, 3722, 3733, 3732
3224, 3953, 3954, 3965, 3964, 3722, 3723, 3734, 3733
3225, 3954, 3955, 3966, 3965, 3723, 3724, 3735, 3734
3226, 3955, 3956, 3967, 3966, 3724, 3725, 3736, 3735
3227, 3956, 3957, 3968, 3967, 3725, 3726, 3737, 3736
3228, 3957, 3958, 3969, 3968, 3726, 3727, 3738, 3737
3229, 3958, 3959, 3970, 3969, 3727, 3728, 3739, 3738
3230, 3959, 3960, 3971, 3970, 3728, 3729, 3740, 3739
3231, 3961, 3962, 3973, 3972, 3730, 3731, 3742, 3741
3232, 3962, 3963, 3974, 3973, 3731, 3732, 3743, 3742
3233, 3963, 3964, 3975, 3974, 3732, 3733, 3744, 3743
3234, 3964, 3965, 3976, 3975, 3733, 3734, 3745, 3744
3235, 3965, 3966, 3977, 3976, 3734, 3735, 3746, 3745
3236, 3966, 3967, 3978, 3977, 3735, 3736, 3747, 3746
3237, 3967, 3968, 3979, 3978, 3736, 3737, 3748, 3747
3238, 3968, 3969, 3980, 3979, 3737, 3738, 3749, 3748
3239, 3969, 3970, 3981, 3980, 3738, 3739, 3750, 3749
3240, 3970, 3971, 3982, 3981, 3739, 3740, 3751, 3750
3241, 3972, 3973, 3984, 3983, 3741, 3742, 3753, 3752
3242, 3973, 3974, 3985, 3984, 3742, 3743, 3754, 3753
3243, 3974, 3975, 3986, 3985, 3743, 3744, 3755, 3754
3244, 3975, 3976, 3987, 3986, 3744, 3745, 3756, 3755
3245, 3976, 3977, 3988, 3987, 3745, 3746, 3757, 3756
3246, 3977, 3978, 3989, 3988, 3746, 3747, 3758, 3757
3247, 3978, 3979, 3990, 3989, 3747, 3748, 3759, 3758
3248, 3979, 3980, 3991, 3990, 3748, 3749, 3760, 3759
3249, 3980, 3981, 3992, 3991, 3749, 3750, 3761, 3760
3250, 3981, 3982, 3993, 3992, 3750, 3751, 3762, 3761
3251, 3983, 3984, 3995, 3994, 3752, 3753, 3764, 3763
3252, 3984, 3985, 3996, 3995, 3753, 3754, 3765, 3764
3253, 3985, 3986, 3997, 3996, 3754, 3755, 3766, 3765
3254, 3986, 3987, 3998, 3997, 3755, 3756, 3767, 3766
3255, 3987, 3988, 3999, 3998, 3756, 3757, 3768, 3767
3256, 3988, 3989, 4000, 3999, 3757, 3758, 3769, 3768
3257, 3989, 3990, 4001, 4000, 3758, 3759, 3770, 3769
3258, 3990, 3991, 4002, 4001, 3759, 3760, 3771, 3770
3259, 3991, 3992, 4003, 4002, 3760, 3761, 3772, 3771
3260, 3992, 3993, 4004, 4003, 3761, 3762, 3773, 3772
3261, 3994, 3995, 4006, 4005, 3763, 3764, 3775, 3774
3262, 3995, 3996, 4007, 4006, 3764, 3765, 3776, 3775
3263, 3996, 3997, 4008, 4007, 3765, 3766, 3777, 3776
3264, 3997, 3998, 4009, 4008, 3766, 3767, 3778, 3777
3265, 3998, 3999, 4010, 4009, 3767, 3768, 3779, 3778
3266, 3999, 4000, 4011, 4010, 3768, 3769, 3780, 3779
3267, 4000, 4001, 4012, 4011, 3769, 3770, 3781, 3780
3268, 4001, 4002, 4013, 4012, 3770, 3771, 3782, 3781
3269, 4002, 4003, 4014, 4013, 3771, 3772, 3783, 3782
3270, 4003, 4004, 4015, 4014, 3772, 3773, 3784, 3783
3271, 4005, 4006, 4017, 4016, 3774, 3775, 3786, 3785
3272, 4006, 4007, 4018, 4017, 3775, 3776, 3787, 3786
3273, 4007, 4008, 4019, 4018, 3776, 3777, 3788, 3787
3274, 4008, 4009, 4020, 4019, 3777, 3778, 3789, 3788
3275, 4009, 4010, 4021, 4020, 3778, 3779, 3790, 3789
3276, 4010, 4011, 4022, 4021, 3779, 3780, 3791, 3790
3277, 4011, 4012, 4023, 4022, 3780, 3781, 3792, 3791
3278, 4012, 4013, 4024, 4023, 3781, 3782, 3793, 3792
3279, 4013, 4014, 4025, 4024, 3782, 3783, 3794, 3793
3280, 4014, 4015, 4026, 4025, 3783, 3784, 3795, 3794
3281, 4016, 4017, 4028, 4027, 3785, 3786, 3797, 3796
3282, 4017, 4018, 4029, 4028, 3786, 3787, 3798, 3797
3283, 4018, 4019, 4030, 4029, 3787, 3788, 3799, 3798
3284, 4019, 4020, 4031, 4030, 3788, 3789, 3800, 3799
3285, 4020, 4021, 4032, 4031, 3789, 3790, 3801, 3800
3286, 4021, 4022, 4033, 4032, 3790, 3791, 3802, 3801
3287, 4022, 4023, 4034, 4033, 3791, 3792, 3803, 3802
3288, 4023, 4024, 4035, 4034, 3792, 3793, 3804, 3803
3289, 4024, 4025, 4036, 4035, 3793, 3794, 3805, 3804
3290, 4025, 4026, 4037, 4036, 3794, 3795, 3806, 3805
3291, 4027, 4028, 4039, 4038, 3796, 3797, 3808, 3807
3292, 4028, 4029, 4040, 4039, 3797, 3798, 3809, 3808
3293, 4029, 4030, 4041, 4040, 3798, 3799, 3810, 3809
3294, 4030, 4031, 4042, 4041, 3799, 3800, 3811, 3810
3295, 4031, 4032, 4043, 4042, 3800, 3801, 3812, 3811
3296, 4032, 4033, 4044, 4043, 3801, 3802, 3813, 3812
3297, 4033, 4034, 4045, 4044, 3802, 3803, 3814, 3813
3298, 4034, 4035, 4046, 4045, 3803, 3804, 3815, 3814
3299, 4035, 4036, 4047, 4046, 3804, 3805, 3816, 3815
3300, 4036, 4037, 4048, 4047, 3805, 3806, 3817, 3816
3301, 4038, 4039, 4050, 4049, 3807, 3808, 3819, 3818
3302, 4039, 4040, 4051, 4050, 3808, 3809, 3820, 3819
3303, 4040, 4041, 4052, 4051, 3809, 3810, 3821, 3820
3304, 4041, 4042, 4053, 4052, 3810, 3811, 3822, 3821
3305, 4042, 4043, 4054, 4053, 3811, 3812, 3823, 3822
3306, 4043, 4044, 4055, 4054, 3812, 3813, 3824, 3823
3307, 4044, 4045, 4056, 4055, 3813, 3814, 3825, 3824
3308, 4045, 4046, 4057, 4056, 3814, 3815, 3826, 3825
3309, 4046, 4047, 4058, 4057, 3815, 3816, 3827, 3826
3310, 4047, 4048, 4059, 4058, 3816, 3817, 3828, 3827
3311, 4049, 4050, 4061, 4060, 3818, 3819, 3830, 3829
3312, 4050, 4051, 4062, 4061, 3819, 3820, 3831, 3830
3313, 4051, 4052, 4063, 4062, 3820, 3821, 3832, 3831
3314, 4052, 4053, 4064, 4063, 3821, 3822, 3833, 3832
3315, 4053, 4054, 4065, 4064, 3822, 3823, 3834, 3833
3316, 4054, 4055, 4066, 4065, 3823, 3824, 3835, 3834
3317, 4055, 4056, 4067, 4066, 3824, 3825, 3836, 3835
3318, 4056, 4057, 4068, 4067, 3825, 3826, 3837, 3836
3319, 4057, 4058, 4069, 4068, 3826, 3827, 3838, 3837
3320, 4058, 4059, 4070, 4069, 3827, 3828, 3839, 3838
3321, 4060, 4061, 4072, 4071, 3829, 3830, 3841, 3840
3322, 4061, 4062, 4073, 4072, 3830, 3831, 3842, 3841
3323, 4062, 4063, 4074, 4073, 3831, 3832, 3843, 3842
3324, 4063, 4064, 4075, 4074, 3832, 3833, 3844, 3843
3325, 4064, 4065, 4076, 4075, 3833, 3834, 3845, 3844
3326, 4065, 4066, 4077, 4076, 3834, 3835, 3846, 3845
3327, 4066, 4067, 4078, 4077, 3835, 3836, 3847, 3846
3328, 4067, 4068, 4079, 4078, 3836, 3837, 3848, 3847
3329, 4068, 4069, 4080, 4079, 3837, 3838, 3849, 3848
3330, 4069, 4070, 4081, 4080, 3838, 3839, 3850, 3849
3331, 4071, 4072, 4083, 4082, 3840, 3841, 3852, 3851
3332, 4072, 4073, 4084, 4083, 3841, 3842, 3853, 3852
3333, 4073, 4074, 4085, 4084, 3842, 3843, 3854, 3853
3334, 4074, 4075, 4086, 4085, 3843, 3844, 3855, 3854
3335, 4075, 4076, 4087, 4086, 3844, 3845, 3856, 3855
3336, 4076, 4077, 4088, 4087, 3845, 3846, 3857, 3856
3337, 4077, 4078, 4089, 4088, 3846, 3847, 3858, 3857
3338, 4078, 4079, 4090, 4089, 3847, 3848, 3859, 3858
3339, 4079, 4080, 4091, 4090, 3848, 3849, 3860, 3859
3340, 4080, 4081, 4092, 4091, 3849, 3850, 3861, 3860
3341, 4082, 4083, 4094, 4093, 3851, 3852, 3863, 3862
3342, 4083, 4084, 4095, 4094, 3852, 3853, 3864, 3863
3343, 4084, 4085, 4096, 4095, 3853, 3854, 3865, 3864
3344, 4085, 4086, 4097, 4096, 3854, 3855, 3866, 3865
3345, 4086, 4087, 4098, 4097, 3855, 3856, 3867, 3866
3346, 4087, 4088, 4099, 4098, 3856, 3857, 3868, 3867
3347, 4088, 4089, 4100, 4099, 3857, 3858, 3869, 3868
3348, 4089, 4090, 4101, 4100, 3858, 3859, 3870, 3869
3349, 4090, 4091, 4102, 4101, 3859, 3860, 3871, 3870
3350, 4091, 4092, 4103, 4102, 3860, 3861, 3872, 3871
3351, 4093, 4094, 4105, 4104, 3862, 3863, 3874, 3873
3352, 4094, 4095, 4106, 4105, 3863, 3864, 3875, 3874
3353, 4095, 4096, 4107, 4106, 3864, 3865, 3876, 3875
3354, 4096, 4097, 4108, 4107, 3865, 3866, 3877, 3876
3355, 4097, 4098, 4109, 4108, 3866, 3867, 3878, 3877
3356, 4098, 4099, 4110, 4109, 3867, 3868, 3879, 3878
3357, 4099, 4100, 4111, 4110, 3868, 3869, 3880, 3879
3358, 4100, 4101, 4112, 4111, 3869, 3870, 3881, 3880
3359, 4101, 4102, 4113, 4112, 3870, 3871, 3882, 3881
3360, 4102, 4103, 4114, 4113, 3871, 3872, 3883, 3882
3361, 4104, 4105, 4116, 4115, 3873, 3874, 3885, 3884
3362, 4105, 4106, 4117, 4116, 3874, 3875, 3886, 3885
3363, 4106, 4107, 4118, 4117, 3875, 3876, 3887, 3886
3364, 4107, 4108, 4119, 4118, 3876, 3877, 3888, 3887
3365, 4108, 4109, 4120, 4119, 3877, 3878, 3889, 3888
3366, 4109, 4110, 4121, 4120, 3878, 3879, 3890, 3889
3367, 4110, 4111, 4122, 4121, 3879, 3880, 3891, 3890
3368, 4111, 4112, 4123, 4122, 3880, 3881, 3892, 3891
3369, 4112, 4113, 4124, 4123, 3881, 3882, 3893, 3892
3370, 4113, 4114, 4125, 4124, 3882, 3883, 3894, 3893
3371, 4115, 4116, 4127, 4126, 3884, 3885, 3896, 3895
3372, 4116, 4117, 4128, 4127, 3885, 3886, 3897, 3896
3373, 4117, 4118, 4129, 4128, 3886, 3887, 3898, 3897
3374, 4118, 4119, 4130, 4129, 3887, 3888, 3899, 3898
3375, 4119, 4120, 4131, 4130, 3888, 3889, 3900, 3899
3376, 4120, 4121, 4132, 4131, 3889, 3890, 3901, 3900
3377, 4121, 4122, 4133, 4132, 3890, 3891, 3902, 3901
3378, 4122, 4123, 4134, 4133, 3891, 3892, 3903, 3902
3379, 4123, 4124, 4135, 4134, 3892, 3893, 3904, 3903
3380, 4124, 4125, 4136, 4135, 3893, 3894, 3905, 3904
3381, 4126, 4127, 4138, 4137, 3895, 3896, 3907, 3906
3382, 4127, 4128, 4139, 4138, 3896, 3897, 3908, 3907
3383, 4128, 4129, 4140, 4139, 3897, 3898, 3909, 3908
3384, 4129, 4130, 4141, 4140, 3898, 3899, 3910, 3909
3385, 4130, 4131, 4142, 4141, 3899, 3900, 3911, 3910
3386, 4131, 4132, 4143, 4142, 3900, 3901, 3912, 3911
3387, 4132, 4133, 4144, 4143, 3901, 3902, 3913, 3912
3388, 4133, 4134, 4145, 4144, 3902, 3903, 3914, 3913
3389, 4134, 4135, 4146, 4145, 3903, 3904, 3915, 3914
3390, 4135, 4136, 4147, 4146, 3904, 3905, 3916, 3915
3391, 4137, 4138, 4149, 4148, 3906, 3907, 3918, 3917
3392, 4138, 4139, 4150, 4149, 3907, 3908, 3919, 3918
3393, 4139, 4140, 4151, 4150, 3908, 3909, 3920, 3919
3394, 4140, 4141, 4152, 4151, 3909, 3910, 3921, 3920
3395, 4141, 4142, 4153, 4152, 3910, 3911, 3922, 3921
3396, 4142, 4143, 4154, 4153, 3911, 3912, 3923, 3922
3397, 4143, 4144, 4155, 4154, 3912, 3913, 3924, 3923
3398, 4144, 4145, 4156, 4155, 3913, 3914, 3925, 3924
3399, 4145, 4146, 4157, 4156, 3914, 3915, 3926, 3925
3400, 4146, 4147, 4158, 4157, 3915, 3916, 3927, 3926
3401, 4159, 4160, 4171, 4170, 3928, 3929, 3940, 3939
3402, 4160, 4161, 4172, 4171, 3929, 3930, 3941, 3940
3403, 4161, 4162, 4173, 4172, 3930, 3931, 3942, 3941
3404, 4162, 4163, 4174, 4173, 3931, 3932, 3943, 3942
3405, 4163, 4164, 4175, 4174, 3932, 3933, 3944, 3943
3406, 4164, 4165, 4176, 4175, 3933, 3934, 3945, 3944
3407, 4165, 4166, 4177, 4176, 3934, 3935, 3946, 3945
3408, 4166, 4167, 4178, 4177, 3935, 3936, 3947, 3946
3409, 4167, 4168, 4179, 4178, 3936, 3937, 3948, 3947
3410, 4168, 4169, 4180, 4179, 3937, 3938, 3949, 3948
3411, 4170, 4171, 4182, 4181, 3939, 3940, 3951, 3950
3412, 4171, 4172, 4183, 4182, 3940, 3941, 3952, 3951
3413, 4172, 4173, 4184, 4183, 3941, 3942, 3953, 3952
3414, 4173, 4174, 4185, 4184, 3942, 3943, 3954, 3953
3415, 4174, 4175, 4186, 4185, 3943, 3944, 3955, 3954
3416, 4175, 4176, 4187, 4186, 3944, 3945, 3956, 3955
3417, 4176, 4177, 4188, 4187, 3945, 3946, 3957, 3956
3418, 4177, 4178, 4189, 4188, 3946, 3947, 3958, 3957
3419, 4178, 4179, 4190, 4189, 3947, 3948, 3959, 3958
3420, 4179, 4180, 4191, 4190, 3948, 3949, 3960, 3959
3421, 4181, 4182, 4193, 4192, 3950, 3951, 3962, 3961
3422, 4182, 4183, 4194, 4193, 3951, 3952, 3963, 3962
3423, 4183, 4184, 4195, 4194, 3952, 3953, 3964, 3963
3424, 4184, 4185, 4196, 4195, 3953, 3954, 3965, 3964
3425, 4185, 4186, 4197, 4196, 3954, 3955, 3966, 3965
3426, 4186, 4187, 4198, 4197, 3955, 3956, 3967, 3966
3427, 4187, 4188, 4199, 4198, 3956, 3957, 3968, 3967
3428, 4188, 4189, 4200, 4199, 3957, 3958, 3969, 3968
3429, 4189, 4190, 4201, 4200, 3958, 3959, 3970, 3969
3430, 4190, 4191, 4202, 4201, 3959, 3960, 3971, 3970
3431, 4192, 4193, 4204, 4203, 3961, 3962, 3973, 3972
3432, 4193, 4194, 4205, 4204, 3962, 3963, 3974, 3973
3433, 4194, 4195, 4206, 4205, 3963, 3964, 3975, 3974
3434, 4195, 4196, 4207, 4206, 3964, 3965, 3976, 3975
3435, 4196, 4197, 4208, 4207, 3965, 3966, 3977, 3976
3436, 4197, 4198, 4209, 4208, 3966, 3967, 3978, 3977
3437, 4198, 4199, 4210, 4209, 3967, 3968, 3979, 3978
3438, 4199, 4200, 4211, 4210, 3968, 3969, 3980, 3979
3439, 4200, 4201, 4212, 4211, 3969, 3970, 3981, 3980
3440, 4201, 4202, 4213, 4212, 3970, 3971, 3982, 3981
3441, 4203, 4204, 4215, 4214, 3972, 3973, 3984, 3983
3442, 4204, 4205, 4216, 4215, 3973, 3974, 3985, 3984
3443, 4205, 4206, 4217, 4216, 3974, 3975, 3986, 3985
3444, 4206, 4207, 4218, 4217, 3975, 3976, 3987, 3986
3445, 4207, 4208, 4219, 4218, 3976, 3977, 3988, 3987
3446, 4208, 4209, 4220, 4219, 3977, 3978, 3989, 3988
3447, 4209, 4210, 4221, 4220, 3978, 3979, 3990, 3989
3448, 4210, 4211, 4222, 4221, 3979, 3980, 3991, 3990
3449, 4211, 4212, 4223, 4222, 3980, 3981, 3992, 3991
3450, 4212, 4213, 4224, 4223, 3981, 3982, 3993, 3992
3451, 4214, 4215, 4226, 4225, 3983, 3984, 3995, 3994
3452, 4215, 4216, 4227, 4226, 3984, 3985, 3996, 3995
3453, 4216, 4217, 4228, 4227, 3985, 3986, 3997, 3996
3454, 4217, 4218, 4229, 4228, 3986, 3987, 3998, 3997
3455, 4218, 4219, 4230, 4229, 3987, 3988, 3999, 3998
3456, 4219, 4220, 4231, 4230, 3988, 3989, 4000, 3999
3457, 4220, 4221, 4232, 4231, 3989, 3990, 4001, 4000
3458, 4221, 4222, 4233, 4232, 3990, 3991, 4002, 4001
3459, 4222, 4223, 4234, 4233, 3991, 3992, 4003, 4002
3460, 4223, 4224, 4235, 4234, 3992, 3993, 4004, 4003
3461, 4225, 4226, 4237, 4236, 3994, 3995, 4006, 4005
3462, 4226, 4227, 4238, 4237, 3995, 3996, 4007, 4006
3463, 4227, 4228, 4239, 4238, 3996, 3997, 4008, 4007
3464, 4228, 4229, 4240, 4239, 3997, 3998, 4009, 4008
3465, 4229, 4230, 4241, 4240, 3998, 3999, 4010, 4009
3466, 4230, 4231, 4242, 4241, 3999, 4000, 4011, 4010
3467, 4231, 4232, 4243, 4242, 4000, 4001, 4012, 4011
3468, 4232, 4233, 4244, 4243, 4001, 4002, 4013, 4012
3469, 4233, 4234, 4245, 4244, 4002, 4003, 4014, 4013
3470, 4234, 4235, 4246, 4245, 4003, 4004, 4015, 4014
3471, 4236, 4237, 4248, 4247, 4005, 4006, 4017, 4016
3472, 4237, 4238, 4249, 4248, 4006, 4007, 4018, 4017
3473, 4238, 4239, 4250, 4249, 4007, 4008, 4019, 4018
3474, 4239, 4240, 4251, 4250, 4008, 4009, 4020, 4019
3475, 4240, 4241, 4252, 4251, 4009, 4010, 4021, 4020
3476, 4241, 4242, 4253, 4252, 4010, 4011, 4022, 4021
3477, 4242, 4243, 4254, 4253, 4011, 4012, 4023, 4022
3478, 4243, 4244, 4255, 4254, 4012, 4013, 4024, 4023
3479, 4244, 4245, 4256, 4255, 4013, 4014, 4025, 4024
3480, 4245, 4246, 4257, 4256, 4014, 4015, 4026, 4025
3481, 4247, 4248, 4259, 4258, 4016, 4017, 4028, 4027
3482, 4248, 4249, 4260, 4259, 4017, 4018, 4029, 4028
3483, 4249, 4250, 4261, 4260, 4018, 4019, 4030, 4029
3484, 4250, 4251, 4262, 4261, 4019, 4020, 4031, 4030
3485, 4251, 4252, 4263, 4262, 4020, 4021, 4032, 4031
3486, 4252, 4253, 4264, 4263, 4021, 4022, 4033, 4032
3487, 4253, 4254, 4265, 4264, 4022, 4023, 4034, 4033
3488, 4254, 4255, 4266, 4265, 4023, 4024, 4035, 4034
3489, 4255, 4256, 4267, 4266, 4024, 4025, 4036, 4035
3490, 4256, 4257, 4268, 4267, 4025, 4026, 4037, 4036
3491, 4258, 4259, 4270, 4269, 4027, 4028, 4039, 4038
3492, 4259, 4260, 4271, 4270, 4028, 4029, 4040, 4039
3493, 4260, 4261, 4272, 4271, 4029, 4030, 4041, 4040
3494, 4261, 4262, 4273, 4272, 4030, 4031, 4042, 4041
3495, 4262, 4263, 4274, 4273, 4031, 4032, 4043, 4042
3496, 4263, 4264, 4275, 4274, 4032, 4033, 4044, 4043
3497, 4264, 4265, 4276, 4275, 4033, 4034, 4045, 4044
3498, 4265, 4266, 4277, 4276, 4034, 4035, 4046, 4045
3499, 4266, 4267, 4278, 4277, 4035, 4036, 4047, 4046
3500, 4267, 4268, 4279, 4278, 4036, 4037, 4048, 4047
3501, 4269, 4270, 4281, 4280, 4038, 4039, 4050, 4049
3502, 4270, 4271, 4282, 4281, 4039, 4040, 4051, 4050
3503, 4271, 4272, 4283, 4282, 4040, 4041, 4052, 4051
3504, 4272, 4273, 4284, 4283, 4041, 4042, 4053, 4052
3505, 4273, 4274, 4285, 4284, 4042, 4043, 4054, 4053
3506, 4274, 4275, 4286, 4285, 4043, 4044, 4055, 4054
3507, 4275, 4276, 4287, 4286, 4044, 4045, 4056, 4055
3508, 4276, 4277, 4288, 4287, 4045, 4046, 4057, 4056
3509, 4277, 4278, 4289, 4288, 4046, 4047, 4058, 4057
3510, 4278, 4279, 4290, 4289, 4047, 4048, 4059, 4058
3511, 4280, 4281, 4292, 4291, 4049, 4050, 4061, 4060
3512, 4281, 4282, 4293, 4292, 4050, 4051, 4062, 4061
3513, 4282, 4283, 4294, 4293, 4051, 4052, 4063, 4062
3514, 4283, 4284, 4295, 4294, 4052, 4053, 4064, 4063
3515, 4284, 4285, 4296, 4295, 4053, 4054, 4065, 4064
3516, 4285, 4286, 4297, 4296, 4054, 4055, 4066, 4065
3517, 4286, 4287, 4298, 4297, 4055, 4056, 4067, 4066
3518, 4287, 4288, 4299, 4298, 4056, 4057, 4068, 4067
3519, 4288, 4289, 4300, 4299, 4057, 4058, 4069, 4068
3520, 4289, 4290, 4301, 4300, 4058, 4059, 4070, 4069
3521, 4291, 4292, 4303, 4302, 4060, 4061, 4072, 4071
3522, 4292, 4293, 4304, 4303, 4061, 4062, 4073, 4072
3523, 4293, 4294, 4305, 4304, 4062, 4063, 4074, 4073
3524, 4294, 4295, 4306, 4305, 4063, 4064, 4075, 4074
3525, 4295, 4296, 4307, 4306, 4064, 4065, 4076, 4075
3526, 4296, 4297, 4308, 4307, 4065, 4066, 4077, 4076
3527, 4297, 4298, 4309, 4308, 4066, 4067, 4078, 4077
3528, 4298, 4299, 4310, 4309, 4067, 4068, 4079, 4078
3529, 4299, 4300, 4311, 4310, 4068, 4069, 4080, 4079
3530, 4300, 4301, 4312, 4311, 4069, 4070, 4081, 4080
3531, 4302, 4303, 4314, 4313, 4071, 4072, 4083, 4082
3532, 4303, 4304, 4315, 4314, 4072, 4073, 4084, 4083
3533, 4304, 4305, 4316, 4315, 4073, 4074, 4085, 4084
3534, 4305, 4306, 4317, 4316, 4074, 4075, 4086, 4085
3535, 4306, 4307, 4318, 4317, 4075, 4076, 4087, 4086
3536, 4307, 4308, 4319, 4318, 4076, 4077, 4088, 4087
3537, 4308, 4309, 4320, 4319, 4077, 4078, 4089, 4088
3538, 4309, 4310, 4321, 4320, 4078, 4079, 4090, 4089
3539, 4310, 4311, 4322, 4321, 4079, 4080, 4091, 4090
3540, 4311, 4312, 4323, 4322, 4080, 4081, 4092, 4091
3541, 4313, 4314, 4325, 4324, 4082, 4083, 4094, 4093
3542, 4314, 4315, 4326, 4325, 4083, 4084, 4095, 4094
3543, 4315, 4316, 4327, 4326, 4084, 4085, 4096, 4095
3544, 4316, 4317, 4328, 4327, 4085, 4086, 4097, 4096
3545, 4317, 4318, 4329, 4328, 4086, 4087, 4098, 4097
3546, 4318, 4319, 4330, 4329, 4087, 4088, 4099, 4098
3547, 4319, 4320, 4331, 4330, 4088, 4089, 4100, 4099
3548, 4320, 4321, 4332, 4331, 4089, 4090, 4101, 4100
3549, 4321, 4322, 4333, 4332, 4090, 4091, 4102, 4101
3550, 4322, 4323, 4334, 4333, 4091, 4092, 4103, 4102
3551, 4324, 4325, 4336, 4335, 4093, 4094, 4105, 4104
3552, 4325, 4326, 4337, 4336, 4094, 4095, 4106, 4105
3553, 4326, 4327, 4338, 4337, 4095, 4096, 4107, 4106
3554, 4327, 4328, 4339, 4338, 4096, 4097, 4108, 4107
3555, 4328, 4329, 4340, 4339, 4097, 4098, 4109, 4108
3556, 4329, 4330, 4341, 4340, 4098, 4099, 4110, 4109
3557, 4330, 4331, 4342, 4341, 4099, 4100, 4111, 4110
3558, 4331, 4332, 4343, 4342, 4100, 4101, 4112, 4111
3559, 4332, 4333, 4344, 4343, 4101, 4102, 4113, 4112
3560, 4333, 4334, 4345, 4344, 4102, 4103, 4114, 4113
3561, 4335, 4336, 4347, 4346, 4104, 4105, 4116, 4115
3562, 4336, 4337, 4348, 4347, 4105, 4106, 4117, 4116
3563, 4337, 4338, 4349, 4348, 4106, 4107, 4118, 4117
3564, 4338, 4339, 4350, 4349, 4107, 4108, 4119, 4118
3565, 4339, 4340, 4351, 4350, 4108, 4109, 4120, 4119
3566, 4340, 4341, 4352, 4351, 4109, 4110, 4121, 4120
3567, 4341, 4342, 4353, 4352, 4110, 4111, 4122, 4121
3568, 4342, 4343, 4354, 4353, 4111, 4112, 4123, 4122
3569, 4343, 4344, 4355, 4354, 4112, 4113, 4124, 4123
3570, 4344, 4345, 4356, 4355, 4113, 4114, 4125, 4124
3571, 4346, 4347, 4358, 4357, 4115, 4116, 4127, 4126
3572, 4347, 4348, 4359, 4358, 4116, 4117, 4128, 4127
3573, 4348, 4349, 4360, 4359, 4117, 4118, 4129, 4128
3574, 4349, 4350, 4361, 4360, 4118, 4119, 4130, 4129
3575, 4350, 4351, 4362, 4361, 4119, 4120, 4131, 4130
3576, 4351, 4352, 4363, 4362, 4120, 4121, 4132, 4131
3577, 4352, 4353, 4364, 4363, 4121, 4122, 4133, 4132
3578, 4353, 4354, 4365, 4364, 4122, 4123, 4134, 4133
3579, 4354, 4355, 4366, 4365, 4123, 4124, 4135, 4134
3580, 4355, 4356, 4367, 4366, 4124, 4125, 4136, 4135
3581, 4357, 4358, 4369, 4368, 4126, 4127, 4138, 4137
3582, 4358, 4359, 4370, 4369, 4127, 4128, 4139, 4138
3583, 4359, 4360, 4371, 4370, 4128, 4129, 4140, 4139
3584, 4360, 4361, 4372, 4371, 4129, 4130, 4141, 4140
3585, 4361, 4362, 4373, 4372, 4130, 4131, 4142, 4141
3586, 4362, 4363, 4374, 4373, 4131, 4132, 4143, 4142
3587, 4363, 4364, 4375, 4374, 4132, 4133, 4144, 4143
3588, 4364, 4365, 4376, 4375, 4133, 4134, 4145, 4144
3589, 4365, 4366, 4377, 4376, 4134, 4135, 4146, 4145
3590, 4366, 4367, 4378, 4377, 4135, 4136, 4147, 4146
3591, 4368, 4369, 4380, 4379, 4137, 4138, 4149, 4148
3592, 4369, 4370, 4381, 4380, 4138, 4139, 4150, 4149
3593, 4370, 4371, 4382, 4381, 4139, 4140, 4151, 4150
3594, 4371, 4372, 4383, 4382, 4140, 4141, 4152, 4151
3595, 4372, 4373, 4384, 4383, 4141, 4142, 4153, 4152
3596, 4373, 4374, 4385, 4384, 4142, 4143, 4154, 4153
3597, 4374, 4375, 4386, 4385, 4143, 4144, 4155, 4154
3598, 4375, 4376, 4387, 4386, 4144, 4145, 4156, 4155
3599, 4376, 4377, 4388, 4387, 4145, 4146, 4157, 4156
3600, 4377, 4378, 4389, 4388, 4146, 4147, 4158, 4157
3601, 4390, 4391, 4402, 4401, 4159, 4160, 4171, 4170
3602, 4391, 4392, 4403, 4402, 4160, 4161, 4172, 4171
3603, 4392, 4393, 4404, 4403, 4161, 4162, 4173, 4172
3604, 4393, 4394, 4405, 4404, 4162, 4163, 4174, 4173
3605, 4394, 4395, 4406, 4405, 4163, 4164, 4175, 4174
3606, 4395, 4396, 4407, 4406, 4164, 4165, 4176, 4175
3607, 4396, 4397, 4408, 4407, 4165, 4166, 4177, 4176
3608, 4397, 4398, 4409, 4408, 4166, 4167, 4178, 4177
3609, 4398, 4399, 4410, 4409, 4167, 4168, 4179, 4178
3610, 4399, 4400, 4411, 4410, 4168, 4169, 4180, 4179
3611, 4401, 4402, 4413, 4412, 4170, 4171, 4182, 4181
3612, 4402, 4403, 4414, 4413, 4171, 4172, 4183, 4182
3613, 4403, 4404, 4415, 4414, 4172, 4173, 4184, 4183
3614, 4404, 4405, 4416, 4415, 4173, 4174, 4185, 4184
3615, 4405, 4406, 4417, 4416, 4174, 4175, 4186, 4185
3616, 4406, 4407, 4418, 4417, 4175, 4176, 4187, 4186
3617, 4407, 4408, 4419, 4418, 4176, 4177, 4188, 4187
3618, 4408, 4409, 4420, 4419, 4177, 4178, 4189, 4188
3619, 4409, 4410, 4421, 4420, 4178, 4179, 4190, 4189
3620, 4410, 4411, 4422, 4421, 4179, 4180, 4191, 4190
3621, 4412, 4413, 4424, 4423, 4181, 4182, 4193, 4192
3622, 4413, 4414, 4425, 4424, 4182, 4183, 4194, 4193
3623, 4414, 4415, 4426, 4425, 4183, 4184, 4195, 4194
3624, 4415, 4416, 4427, 4426, 4184, 4185, 4196, 4195
3625, 4416, 4417, 4428, 4427, 4185, 4186, 4197, 4196
3626, 4417, 4418, 4429, 4428, 4186, 4187, 4198, 4197
3627, 4418, 4419, 4430, 4429, 4187, 4188, 4199, 4198
3628, 4419, 4420, 4431, 4430, 4188, 4189, 4200, 4199
3629, 4420, 4421, 4432, 4431, 4189, 4190, 4201, 4200
3630, 4421, 4422, 4433, 4432, 4190, 4191, 4202, 4201
3631, 4423, 4424, 4435, 4434, 4192, 4193, 4204, 4203
3632, 4424, 4425, 4436, 4435, 4193, 4194, 4205, 4204
3633, 4425, 4426, 4437, 4436, 4194, 4195, 4206, 4205
3634, 4426, 4427, 4438, 4437, 4195, 4196, 4207, 4206
3635, 4427, 4428, 4439, 4438, 4196, 4197, 4208, 4207
3636, 4428, 4429, 4440, 4439, 4197, 4198, 4209, 4208
3637, 4429, 4430, 4441, 4440, 4198, 4199, 4210, 4209
3638, 4430, 4431, 4442, 4441, 4199, 4200, 4211, 4210
3639, 4431, 4432, 4443, 4442, 4200, 4201, 4212, 4211
3640, 4432, 4433, 4444, 4443, 4201, 4202, 4213, 4212
3641, 4434, 4435, 4446, 4445, 4203, 4204, 4215, 4214
3642, 4435, 4436, 4447, 4446, 4204, 4205, 4216, 4215
3643, 4436, 4437, 4448, 4447, 4205, 4206, 4217, 4216
3644, 4437, 4438, 4449, 4448, 4206, 4207, 4218, 4217
3645, 4438, 4439, 4450, 4449, 4207, 4208, 4219, 4218
3646, 4439, 4440, 4451, 4450, 4208, 4209, 4220, 4219
3647, 4440, 4441, 4452, 4451, 4209, 4210, 4221, 4220
3648, 4441, 4442, 4453, 4452, 4210, 4211, 4222, 4221
3649, 4442, 4443, 4454, 4453, 4211, 4212, 4223, 4222
3650, 4443, 4444, 4455, 4454, 4212, 4213, 4224, 4223
3651, 4445, 4446, 4457, 4456, 4214, 4215, 4226, 4225
3652, 4446, 4447, 4458, 4457, 4215, 4216, 4227, 4226
3653, 4447, 4448, 4459, 4458, 4216, 4217, 4228, 4227
3654, 4448, 4449, 4460, 4459, 4217, 4218, 4229, 4228
3655, 4449, 4450, 4461, 4460, 4218, 4219, 4230, 4229
3656, 4450, 4451, 4462, 4461, 4219, 4220, 4231, 4230
3657, 4451, 4452, 4463, 4462, 4220, 4221, 4232, 4231
3658, 4452, 4453, 4464, 4463, 4221, 4222, 4233, 4232
3659, 4453, 4454, 4465, 4464, 4222, 4223, 4234, 4233
3660, 4454, 4455, 4466, 4465, 4223, 4224, 4235, 4234
3661, 4456, 4457, 4468, 4467, 4225, 4226, 4237, 4236
3662, 4457, 4458, 4469, 4468, 4226, 4227, 4238, 4237
3663, 4458, 4459, 4470, 4469, 4227, 4228, 4239, 4238
3664, 4459, 4460, 4471, 4470, 4228, 4229, 4240, 4239
3665, 4460, 4461, 4472, 4471, 4229, 4230, 4241, 4240
3666, 4461, 4462, 4473, 4472, 4230, 4231, 4242, 4241
3667, 4462, 4463, 4474, 4473, 4231, 4232, 4243, 4242
3668, 4463, 4464, 4475, 4474, 4232, 4233, 4244, 4243
3669, 4464, 4465, 4476, 4475, 4233, 4234, 4245, 4244
3670, 4465, 4466, 4477, 4476, 4234, 4235, 4246, 4245
3671, 4467, 4468, 4479, 4478, 4236, 4237, 4248, 4247
3672, 4468, 4469, 4480, 4479, 4237, 4238, 4249, 4248
3673, 4469, 4470, 4481, 4480, 4238, 4239, 4250, 4249
3674, 4470, 4471, 4482, 4481, 4239, 4240, 4251, 4250
3675, 4471, 4472, 4483, 4482, 4240, 4241, 4252, 4251
3676, 4472, 4473, 4484, 4483, 4241, 4242, 4253, 4252
3677, 4473, 4474, 4485, 4484, 4242, 4243, 4254, 4253
3678, 4474, 4475, 4486, 4485, 4243, 4244, 4255, 4254
3679, 4475, 4476, 4487, 4486, 4244, 4245, 4256, 4255
3680, 4476, 4477, 4488, 4487, 4245, 4246, 4257, 4256
3681, 4478, 4479, 4490, 4489, 4247, 4248, 4259, 4258
3682, 4479, 4480, 4491, 4490, 4248, 4249, 4260, 4259
3683, 4480, 4481, 4492, 4491, 4249, 4250, 4261, 4260
3684, 4481, 4482, 4493, 4492, 4250, 4251, 4262, 4261
3685, 4482, 4483, 4494, 4493, 4251, 4252, 4263, 4262
3686, 4483, 4484, 4495, 4494, 4252, 4253, 4264, 4263
3687, 4484, 4485, 4496, 4495, 4253, 4254, 4265, 4264
3688, 4485, 4486, 4497, 4496, 4254, 4255, 4266, 4265
3689, 4486, 4487, 4498, 4497, 4255, 4256, 4267, 4266
3690, 4487, 4488, 4499, 4498, 4256, 4257, 4268, 4267
3691, 4489, 4490, 4501, 4500, 4258, 4259, 4270, 4269
3692, 4490, 4491, 4502, 4501, 4259, 4260, 4271, 4270
3693, 4491, 4492, 4503, 4502, 4260, 4261, 4272, 4271
3694, 4492, 4493, 4504, 4503, 4261, 4262, 4273, 4272
3695, 4493, 4494, 4505, 4504, 4262, 4263, 4274, 4273
3696, 4494, 4495, 4506, 4505, 4263, 4264, 4275, 4274
3697, 4495, 4496, 4507, 4506, 4264, 4265, 4276, 4275
3698, 4496, 4497, 4508, 4507, 4265, 4266, 4277, 4276
3699, 4497, 4498, 4509, 4508, 4266, 4267, 4278, 4277
3700, 4498, 4499, 4510, 4509, 4267, 4268, 4279, 4278
3701, 4500, 4501, 4512, 4511, 4269, 4270, 4281, 4280
3702, 4501, 4502, 4513, 4512, 4270, 4271, 4282, 4281
3703, 4502, 4503, 4514, 4513, 4271, 4272, 4283, 4282
3704, 4503, 4504, 4515, 4514, 4272, 4273, 4284, 4283
3705, 4504, 4505, 4516, 4515, 4273, 4274, 4285, 4284
3706, 4505, 4506, 4517, 4516, 4274, 4275, 4286, 4285
3707, 4506, 4507, 4518, 4517, 4275, 4276, 4287, 4286
3708, 4507, 4508, 4519, 4518, 4276, 4277, 4288, 4287
3709, 4508, 4509, 4520, 4519, 4277, 4278, 4289, 4288
3710, 4509, 4510, 4521, 4520, 4278, 4279, 4290, 4289
3711, 4511, 4512, 4523, 4522, 4280, 4281, 4292, 4291
3712, 4512, 4513, 4524, 4523, 4281, 4282, 4293, 4292
3713, 4513, 4514, 4525, 4524, 4282, 4283, 4294, 4293
3714, 4514, 4515, 4526, 4525, 4283, 4284, 4295, 4294
3715, 4515, 4516, 4527, 4526, 4284, 4285, 4296, 4295
3716, 4516, 4517, 4528, 4527, 4285, 4286, 4297, 4296
3717, 4517, 4518, 4529, 4528, 4286, 4287, 4298, 4297
3718, 4518, 4519, 4530, 4529, 4287, 4288, 4299, 4298
3719, 4519, 4520, 4531, 4530, 4288, 4289, 4300, 4299
3720, 4520, 4521, 4532, 4531, 4289, 4290, 4301, 4300
3721, 4522, 4523, 4534, 4533, 4291, 4292, 4303, 4302
3722, 4523, 4524, 4535, 4534, 4292, 4293, 4304, 4303
3723, 4524, 4525, 4536, 4535, 4293, 4294, 4305, 4304
3724, 4525, 4526, 4537, 4536, 4294, 4295, 4306, 4305
3725, 4526, 4527, 4538, 4537, 4295, 4296, 4307, 4306
3726, 4527, 4528, 4539, 4538, 4296, 4297, 4308, 4307
3727, 4528, 4529, 4540, 4539, 4297, 4298, 4309, 4308
3728, 4529, 4530, 4541, 4540, 4298, 4299, 4310, 4309
3729, 4530, 4531, 4542, 4541, 4299, 4300, 4311, 4310
3730, 4531, 4532, 4543, 4542, 4300, 4301, 4312, 4311
3731, 4533, 4534, 4545, 4544, 4302, 4303, 4314, 4313
3732, 4534, 4535, 4546, 4545, 4303, 4304, 4315, 4314
3733, 4535, 4536, 4547, 4546, 4304, 4305, 4316, 4315
3734, 4536, 4537, 4548, 4547, 4305, 4306, 4317, 4316
3735, 4537, 4538, 4549, 4548, 4306, 4307, 4318, 4317
3736, 4538, 4539, 4550, 4549, 4307, 4308, 4319, 4318
3737, 4539, 4540, 4551, 4550, 4308, 4309, 4320, 4319
3738, 4540, 4541, 4552, 4551, 4309, 4310, 4321, 4320
3739, 4541, 4542, 4553, 4552, 4310, 4311, 4322, 4321
3740, 4542, 4543, 4554, 4553, 4311, 4312, 4323, 4322
3741, 4544, 4545, 4556, 4555, 4313, 4314, 4325, 4324
3742, 4545, 4546, 4557, 4556, 4314, 4315, 4326, 4325
3743, 4546, 4547, 4558, 4557, 4315, 4316, 4327, 4326
3744, 4547, 4548, 4559, 4558, 4316, 4317, 4328, 4327
3745, 4548, 4549, 4560, 4559, 4317, 4318, 4329, 4328
3746, 4549, 4550, 4561, 4560, 4318, 4319, 4330, 4329
3747, 4550, 4551, 4562, 4561, 4319, 4320, 4331, 4330
3748, 4551, 4552, 4563, 4562, 4320, 4321, 4332, 4331
3749, 4552, 4553, 4564, 4563, 4321, 4322, 4333, 4332
3750, 4553, 4554, 4565, 4564, 4322, 4323, 4334, 4333
3751, 4555, 4556, 4567, 4566, 4324, 4325, 4336, 4335
3752, 4556, 4557, 4568, 4567, 4325, 4326, 4337, 4336
3753, 4557, 4558, 4569, 4568, 4326, 4327, 4338, 4337
3754, 4558, 4559, 4570, 4569, 4327, 4328, 4339, 4338
3755, 4559, 4560, 4571, 4570, 4328, 4329, 4340, 4339
3756, 4560, 4561, 4572, 4571, 4329, 4330, 4341, 4340
3757, 4561, 4562, 4573, 4572, 4330, 4331, 4342, 4341
3758, 4562, 4563, 4574, 4573, 4331, 4332, 4343, 4342
3759, 4563, 4564, 4575, 4574, 4332, 4333, 4344, 4343
3760, 4564, 4565, 4576, 4575, 4333, 4334, 4345, 4344
3761, 4566, 4567, 4578, 4577, 4335, 4336, 4347, 4346
3762, 4567, 4568, 4579, 4578, 4336, 4337, 4348, 4347
3763, 4568, 4569, 4580, 4579, 4337, 4338, 4349, 4348
3764, 4569, 4570, 4581, 4580, 4338, 4339, 4350, 4349
3765, 4570, 4571, 4582, 4581, 4339, 4340, 4351, 4350
3766, 4571, 4572, 4583, 4582, 4340, 4341, 4352, 4351
3767, 4572, 4573, 4584, 4583, 4341, 4342, 4353, 4352
3768, 4573, 4574, 4585, 4584, 4342, 4343, 4354, 4353
3769, 4574, 4575, 4586, 4585, 4343, 4344, 4355, 4354
3770, 4575, 4576, 4587, 4586, 4344, 4345, 4356, 4355
3771, 4577, 4578, 4589, 4588, 4346, 4347, 4358, 4357
3772, 4578, 4579, 4590, 4589, 4347, 4348, 4359, 4358
3773, 4579, 4580, 4591, 4590, 4348, 4349, 4360, 4359
3774, 4580, 4581, 4592, 4591, 4349, 4350, 4361, 4360
3775, 4581, 4582, 4593, 4592, 4350, 4351, 4362, 4361
3776, 4582, 4583, 4594, 4593, 4351, 4352, 4363, 4362
3777, 4583, 4584, 4595, 4594, 4352, 4353, 4364, 4363
3778, 4584, 4585, 4596, 4595, 4353, 4354, 4365, 4364
3779, 4585, 4586, 4597, 4596, 4354, 4355, 4366, 4365
3780, 4586, 4587, 4598, 4597, 4355, 4356, 4367, 4366
3781, 4588, 4589, 4600, 4599, 4357, 4358, 4369, 4368
3782, 4589, 4590, 4601, 4600, 4358, 4359, 4370, 4369
3783, 4590, 4591, 4602, 4601, 4359, 4360, 4371, 4370
3784, 4591, 4592, 4603, 4602, 4360, 4361, 4372, 4371
3785, 4592, 4593, 4604, 4603, 4361, 4362, 4373, 4372
3786, 4593, 4594, 4605, 4604, 4362, 4363, 4374, 4373
3787, 4594, 4595, 4606, 4605, 4363, 4364, 4375, 4374
3788, 4595, 4596, 4607, 4606, 4364, 4365, 4376, 4375
3789, 4596, 4597, 4608, 4607, 4365, 4366, 4377, 4376
3790, 4597, 4598, 4609, 4608, 4366, 4367, 4378, 4377
3791, 4599, 4600, 4611, 4610, 4368, 4369, 4380, 4379
3792, 4600, 4601, 4612, 4611, 4369, 4370, 4381, 4380
3793, 4601, 4602, 4613, 4612, 4370, 4371, 4382, 4381
3794, 4602, 4603, 4614, 4613, 4371, 4372, 4383, 4382
3795, 4603, 4604, 4615, 4614, 4372, 4373, 4384, 4383
3796, 4604, 4605, 4616, 4615, 4373, 4374, 4385, 4384
3797, 4605, 4606, 4617, 4616, 4374, 4375, 4386, 4385
3798, 4606, 4607, 4618, 4617, 4375, 4376, 4387, 4386
3799, 4607, 4608, 4619, 4618, 4376, 4377, 4388, 4387
3800, 4608, 4609, 4620, 4619, 4377, 4378, 4389, 4388
3801, 4621, 4622, 4633, 4632, 4390, 4391, 4402, 4401
3802, 4622, 4623, 4634, 4633, 4391, 4392, 4403, 4402
3803, 4623, 4624, 4635, 4634, 4392, 4393, 4404, 4403
3804, 4624, 4625, 4636, 4635, 4393, 4394, 4405, 4404
3805, 4625, 4626, 4637, 4636, 4394, 4395, 4406, 4405
3806, 4626, 4627, 4638, 4637, 4395, 4396, 4407, 4406
3807, 4627, 4628, 4639, 4638, 4396, 4397, 4408, 4407
3808, 4628, 4629, 4640, 4639, 4397, 4398, 4409, 4408
3809, 4629, 4630, 4641, 4640, 4398, 4399, 4410, 4409
3810, 4630, 4631, 4642, 4641, 4399, 4400, 4411, 4410
3811, 4632, 4633, 4644, 4643, 4401, 4402, 4413, 4412
3812, 4633, 4634, 4645, 4644, 4402, 4403, 4414, 4413
3813, 4634, 4635, 4646, 4645, 4403, 4404, 4415, 4414
3814, 4635, 4636, 4647, 4646, 4404, 4405, 4416, 4415
3815, 4636, 4637, 4648, 4647, 4405, 4406, 4417, 4416
3816, 4637, 4638, 4649, 4648, 4406, 4407, 4418, 4417
3817, 4638, 4639, 4650, 4649, 4407, 4408, 4419, 4418
3818, 4639, 4640, 4651, 4650, 4408, 4409, 4420, 4419
3819, 4640, 4641, 4652, 4651, 4409, 4410, 4421, 4420
3820, 4641, 4642, 4653, 4652, 4410, 4411, 4422, 4421
3821, 4643, 4644, 4655, 4654, 4412, 4413, 4424, 4423
3822, 4644, 4645, 4656, 4655, 4413, 4414, 4425, 4424
3823, 4645, 4646, 4657, 4656, 4414, 4415, 4426, 4425
3824, 4646, 4647, 4658, 4657, 4415, 4416, 4427, 4426
3825, 4647, 4648, 4659, 4658, 4416, 4417, 4428, 4427
3826, 4648, 4649, 4660, 4659, 4417, 4418, 4429, 4428
3827, 4649, 4650, 4661, 4660, 4418, 4419, 4430, 4429
3828, 4650, 4651, 4662, 4661, 4419, 4420, 4431, 4430
3829, 4651, 4652, 4663, 4662, 4420, 4421, 4432, 4431
3830, 4652, 4653, 4664, 4663, 4421, 4422, 4433, 4432
3831, 4654, 4655, 4666, 4665, 4423, 4424, 4435, 4434
3832, 4655, 4656, 4667, 4666, 4424, 4425, 4436, 4435
3833, 4656, 4657, 4668, 4667, 4425, 4426, 4437, 4436
3834, 4657, 4658, 4669, 4668, 4426, 4427, 4438, 4437
3835, 4658, 4659, 4670, 4669, 4427, 4428, 4439, 4438
3836, 4659, 4660, 4671, 4670, 4428, 4429, 4440, 4439
3837, 4660, 4661, 4672, 4671, 4429, 4430, 4441, 4440
3838, 4661, 4662, 4673, 4672, 4430, 4431, 4442, 4441
3839, 4662, 4663, 4674, 4673, 4431, 4432, 4443, 4442
3840, 4663, 4664, 4675, 4674, 4432, 4433, 4444, 4443
3841, 4665, 4666, 4677, 4676, 4434, 4435, 4446, 4445
3842, 4666, 4667, 4678, 4677, 4435, 4436, 4447, 4446
3843, 4667, 4668, 4679, 4678, 4436, 4437, 4448, 4447
3844, 4668, 4669, 4680, 4679, 4437, 4438, 4449, 4448
3845, 4669, 4670, 4681, 4680, 4438, 4439, 4450, 4449
3846, 4670, 4671, 4682, 4681, 4439, 4440, 4451, 4450
3847, 4671, 4672, 4683, 4682, 4440, 4441, 4452, 4451
3848, 4672, 4673, 4684, 4683, 4441, 4442, 4453, 4452
3849, 4673, 4674, 4685, 4684, 4442, 4443, 4454, 4453
3850, 4674, 4675, 4686, 4685, 4443, 4444, 4455, 4454
3851, 4676, 4677, 4688, 4687, 4445, 4446, 4457, 4456
3852, 4677, 4678, 4689, 4688, 4446, 4447, 4458, 4457
3853, 4678, 4679, 4690, 4689, 4447, 4448, 4459, 4458
3854, 4679, 4680, 4691, 4690, 4448, 4449, 4460, 4459
3855, 4680, 4681, 4692, 4691, 4449, 4450, 4461, 4460
3856, 4681, 4682, 4693, 4692, 4450, 4451, 4462, 4461
3857, 4682, 4683, 4694, 4693, 4451, 4452, 4463, 4462
3858, 4683, 4684, 4695, 4694, 4452, 4453, 4464, 4463
3859, 4684, 4685, 4696, 4695, 4453, 4454, 4465, 4464
3860, 4685, 4686, 4697, 4696, 4454, 4455, 4466, 4465
3861, 4687, 4688, 4699, 4698, 4456, 4457, 4468, 4467
3862, 4688, 4689, 4700, 4699, 4457, 4458, 4469, 4468
3863, 4689, 4690, 4701, 4700, 4458, 4459, 4470, 4469
3864, 4690, 4691, 4702, 4701, 4459, 4460, 4471, 4470
3865, 4691, 4692, 4703, 4702, 4460, 4461, 4472, 4471
3866, 4692, 4693, 4704, 4703, 4461, 4462, 4473, 4472
3867, 4693, 4694, 4705, 4704, 4462, 4463, 4474, 4473
3868, 4694, 4695, 4706, 4705, 4463, 4464, 4475, 4474
3869, 4695, 4696, 4707, 4706, 4464, 4465, 4476, 4475
3870, 4696, 4697, 4708, 4707, 4465, 4466, 4477, 4476
3871, 4698, 4699, 4710, 4709, 4467, 4468, 4479, 4478
3872, 4699, 4700, 4711, 4710, 4468, 4469, 4480, 4479
3873, 4700, 4701, 4712, 4711, 4469, 4470, 4481, 4480
3874, 4701, 4702, 4713, 4712, 4470, 4471, 4482, 4481
3875, 4702, 4703, 4714, 4713, 4471, 4472, 4483, 4482
3876, 4703, 4704, 4715, 4714, 4472, 4473, 4484, 4483
3877, 4704, 4705, 4716, 4715, 4473, 4474, 4485, 4484
3878, 4705, 4706, 4717, 4716, 4474, 4475, 4486, 4485
3879, 4706, 4707, 4718, 4717, 4475, 4476, 4487, 4486
3880, 4707, 4708, 4719, 4718, 4476, 4477, 4488, 4487
3881, 4709, 4710, 4721, 4720, 4478, 4479, 4490, 4489
3882, 4710, 4711, 4722, 4721, 4479, 4480, 4491, 4490
3883, 4711, 4712, 4723, 4722, 4480, 4481, 4492, 4491
3884, 4712, 4713, 4724, 4723, 4481, 4482, 4493, 4492
3885, 4713, 4714, 4725, 4724, 4482, 4483, 4494, 4493
3886, 4714, 4715, 4726, 4725, 4483, 4484, 4495, 4494
3887, 4715, 4716, 4727, 4726, 4484, 4485, 4496, 4495
3888, 4716, 4717, 4728, 4727, 4485, 4486, 4497, 4496
3889, 4717, 4718, 4729, 4728, 4486, 4487, 4498, 4497
3890, 4718, 4719, 4730, 4729, 4487, 4488, 4499, 4498
3891, 4720, 4721, 4732, 4731, 4489, 4490, 4501, 4500
3892, 4721, 4722, 4733, 4732, 4490, 4491, 4502, 4501
3893, 4722, 4723, 4734, 4733, 4491, 4492, 4503, 4502
3894, 4723, 4724, 4735, 4734, 4492, 4493, 4504, 4503
3895, 4724, 4725, 4736, 4735, 4493, 4494, 4505, 4504
3896, 4725, 4726, 4737, 4736, 4494, 4495, 4506, 4505
3897, 4726, 4727, 4738, 4737, 4495, 4496, 4507, 4506
3898, 4727, 4728, 4739, 4738, 4496, 4497, 4508, 4507
3899, 4728, 4729, 4740, 4739, 4497, 4498, 4509, 4508
3900, 4729, 4730, 4741, 4740, 4498, 4499, 4510, 4509
3901, 4731, 4732, 4743, 4742, 4500, 4501, 4512, 4511
3902, 4732, 4733, 4744, 4743, 4501, 4502, 4513, 4512
3903, 4733, 4734, 4745, 4744, 4502, 4503, 4514, 4513
3904, 4734, 4735, 4746, 4745, 4503, 4504, 4515, 4514
3905, 4735, 4736, 4747, 4746, 4504, 4505, 4516, 4515
3906, 4736, 4737, 4748, 4747, 4505, 4506, 4517, 4516
3907, 4737, 4738, 4749, 4748, 4506, 4507, 4518, 4517
3908, 4738, 4739, 4750, 4749, 4507, 4508, 4519, 4518
3909, 4739, 4740, 4751, 4750, 4508, 4509, 4520, 4519
3910, 4740, 4741, 4752, 4751, 4509, 4510, 4521, 4520
3911, 4742, 4743, 4754, 4753, 4511, 4512, 4523, 4522
3912, 4743, 4744, 4755, 4754, 4512, 4513, 4524, 4523
3913, 4744, 4745, 4756, 4755, 4513, 4514, 4525, 4524
3914, 4745, 4746, 4757, 4756, 4514, 4515, 4526, 4525
3915, 4746, 4747, 4758, 4757, 4515, 4516, 4527, 4526
3916, 4747, 4748, 4759, 4758, 4516, 4517, 4528, 4527
3917, 4748, 4749, 4760, 4759, 4517, 4518, 4529, 4528
3918, 4749, 4750, 4761, 4760, 4518, 4519, 4530, 4529
3919, 4750, 4751, 4762, 4761, 4519, 4520, 4531, 4530
3920, 4751, 4752, 4763, 4762, 4520, 4521, 4532, 4531
3921, 4753, 4754, 4765, 4764, 4522, 4523, 4534, 4533
3922, 4754, 4755, 4766, 4765, 4523, 4524, 4535, 4534
3923, 4755, 4756, 4767, 4766, 4524, 4525, 4536, 4535
3924, 4756, 4757, 4768, 4767, 4525, 4526, 4537, 4536
3925, 4757, 4758, 4769, 4768, 4526, 4527, 4538, 4537
3926, 4758, 4759, 4770, 4769, 4527, 4528, 4539, 4538
3927, 4759, 4760, 4771, 4770, 4528, 4529, 4540, 4539
3928, 4760, 4761, 4772, 4771, 4529, 4530, 4541, 4540
3929, 4761, 4762, 4773, 4772, 4530, 4531, 4542, 4541
3930, 4762, 4763, 4774, 4773, 4531, 4532, 4543, 4542
3931, 4764, 4765, 4776, 4775, 4533, 4534, 4545, 4544
3932, 4765, 4766, 4777, 4776, 4534, 4535, 4546, 4545
3933, 4766, 4767, 4778, 4777, 4535, 4536, 4547, 4546
3934, 4767, 4768, 4779, 4778, 4536, 4537, 4548, 4547
3935, 4768, 4769, 4780, 4779, 4537, 4538, 4549, 4548
3936, 4769, 4770, 4781, 4780, 4538, 4539, 4550, 4549
3937, 4770, 4771, 4782, 4781, 4539, 4540, 4551, 4550
3938, 4771, 4772, 4783, 4782, 4540, 4541, 4552, 4551
3939, 4772, 4773, 4784, 4783, 4541, 4542, 4553, 4552
3940, 4773, 4774, 4785, 4784, 4542, 4543, 4554, 4553
3941, 4775, 4776, 4787, 4786, 4544, 4545, 4556, 4555
3942, 4776, 4777, 4788, 4787, 4545, 4546, 4557, 4556
3943, 4777, 4778, 4789, 4788, 4546, 4547, 4558, 4557
3944, 4778, 4779, 4790, 4789, 4547, 4548, 4559, 4558
3945, 4779, 4780, 4791, 4790, 4548, 4549, 4560, 4559
3946, 4780, 4781, 4792, 4791, 4549, 4550, 4561, 4560
3947, 4781, 4782, 4793, 4792, 4550, 4551, 4562, 4561
3948, 4782, 4783, 4794, 4793, 4551, 4552, 4563, 4562
3949, 4783, 4784, 4795, 4794, 4552, 4553, 4564, 4563
3950, 4784, 4785, 4796, 4795, 4553, 4554, 4565, 4564
3951, 4786, 4787, 4798, 4797, 4555, 4556, 4567, 4566
3952, 4787, 4788, 4799, 4798, 4556, 4557, 4568, 4567
3953, 4788, 4789, 4800, 4799, 4557, 4558, 4569, 4568
3954, 4789, 4790, 4801, 4800, 4558, 4559, 4570, 4569
3955, 4790, 4791, 4802, 4801, 4559, 4560, 4571, 4570
3956, 4791, 4792, 4803, 4802, 4560, 4561, 4572, 4571
3957, 4792, 4793, 4804, 4803, 4561, 4562, 4573, 4572
3958, 4793, 4794, 4805, 4804, 4562, 4563, 4574, 4573
3959, 4794, 4795, 4806, 4805, 4563, 4564, 4575, 4574
3960, 4795, 4796, 4807, 4806, 4564, 4565, 4576, 4575
3961, 4797, 4798, 4809, 4808, 4566, 4567, 4578, 4577
3962, 4798, 4799, 4810, 4809, 4567, 4568, 4579, 4578
3963, 4799, 4800, 4811, 4810, 4568, 4569, 4580, 4579
3964, 4800, 4801, 4812, 4811, 4569, 4570, 4581, 4580
3965, 4801, 4802, 4813, 4812, 4570, 4571, 4582, 4581
3966, 4802, 4803, 4814, 4813, 4571, 4572, 4583, 4582
3967, 4803, 4804, 4815, 4814, 4572, 4573, 4584, 4583
3968, 4804, 4805, 4816, 4815, 4573, 4574, 4585, 4584
3969, 4805, 4806, 4817, 4816, 4574, 4575, 4586, 4585
3970, 4806, 4807, 4818, 4817, 4575, 4576, 4587, 4586
3971, 4808, 4809, 4820, 4819, 4577, 4578, 4589, 4588
3972, 4809, 4810, 4821, 4820, 4578, 4579, 4590, 4589
3973, 4810, 4811, 4822, 4821, 4579, 4580, 4591, 4590
3974, 4811, 4812, 4823, 4822, 4580, 4581, 4592, 4591
3975, 4812, 4813, 4824, 4823, 4581, 4582, 4593, 4592
3976, 4813, 4814, 4825, 4824, 4582, 4583, 4594, 4593
3977, 4814, 4815, 4826, 4825, 4583, 4584, 4595, 4594
3978, 4815, 4816, 4827, 4826, 4584, 4585, 4596, 4595
3979, 4816, 4817, 4828, 4827, 4585, 4586, 4597, 4596
3980, 4817, 4818, 4829, 4828, 4586, 4587, 4598, 4597
3981, 4819, 4820, 4831, 4830, 4588, 4589, 4600, 4599
3982, 4820, 4821, 4832, 4831, 4589, 4590, 4601, 4600
3983, 4821, 4822, 4833, 4832, 4590, 4591, 4602, 4601
3984, 4822, 4823, 4834, 4833, 4591, 4592, 4603, 4602
3985, 4823, 4824, 4835, 4834, 4592, 4593, 4604, 4603
3986, 4824, 4825, 4836, 4835, 4593, 4594, 4605, 4604
3987, 4825, 4826, 4837, 4836, 4594, 4595, 4606, 4605
3988, 4826, 4827, 4838, 4837, 4595, 4596, 4607, 4606
3989, 4827, 4828, 4839, 4838, 4596, 4597, 4608, 4607
3990, 4828, 4829, 4840, 4839, 4597, 4598, 4609, 4608
3991, 4830, 4831, 4842, 4841, 4599, 4600, 4611, 4610
3992, 4831, 4832, 4843, 4842, 4600, 4601, 4612, 4611
3993, 4832, 4833, 4844, 4843, 4601, 4602, 4613, 4612
3994, 4833, 4834, 4845, 4844, 4602, 4603, 4614, 4613
3995, 4834, 4835, 4846, 4845, 4603, 4604, 4615, 4614
3996, 4835, 4836, 4847, 4846, 4604, 4605, 4616, 4615
3997, 4836, 4837, 4848, 4847, 4605, 4606, 4617, 4616
3998, 4837, 4838, 4849, 4848, 4606, 4607, 4618, 4617
3999, 4838, 4839, 4850, 4849, 4607, 4608, 4619, 4618
4000, 4839, 4840, 4851, 4850, 4608, 4609, 4620, 4619
4001, 4852, 4853, 4864, 4863, 4621, 4622, 4633, 4632
4002, 4853, 4854, 4865, 4864, 4622, 4623, 4634, 4633
4003, 4854, 4855, 4866, 4865, 4623, 4624, 4635, 4634
4004, 4855, 4856, 4867, 4866, 4624, 4625, 4636, 4635
4005, 4856, 4857, 4868, 4867, 4625, 4626, 4637, 4636
4006, 4857, 4858, 4869, 4868, 4626, 4627, 4638, 4637
4007, 4858, 4859, 4870, 4869, 4627, 4628, 4639, 4638
4008, 4859, 4860, 4871, 4870, 4628, 4629, 4640, 4639
4009, 4860, 4861, 4872, 4871, 4629, 4630, 4641, 4640
4010, 4861, 4862, 4873, 4872, 4630, 4631, 4642, 4641
4011, 4863, 4864, 4875, 4874, 4632, 4633, 4644, 4643
4012, 4864, 4865, 4876, 4875, 4633, 4634, 4645, 4644
4013, 4865, 4866, 4877, 4876, 4634, 4635, 4646, 4645
4014, 4866, 4867, 4878, 4877, 4635, 4636, 4647, 4646
4015, 4867, 4868, 4879, 4878, 4636, 4637, 4648, 4647
4016, 4868, 4869, 4880, 4879, 4637, 4638, 4649, 4648
4017, 4869, 4870, 4881, 4880, 4638, 4639, 4650, 4649
4018, 4870, 4871, 4882, 4881, 4639, 4640, 4651, 4650
4019, 4871, 4872, 4883, 4882, 4640, 4641, 4652, 4651
4020, 4872, 4873, 4884, 4883, 4641, 4642, 4653, 4652
4021, 4874, 4875, 4886, 4885, 4643, 4644, 4655, 4654
4022, 4875, 4876, 4887, 4886, 4644, 4645, 4656, 4655
4023, 4876, 4877, 4888, 4887, 4645, 4646, 4657, 4656
4024, 4877, 4878, 4889, 4888, 4646, 4647, 4658, 4657
4025, 4878, 4879, 4890, 4889, 4647, 4648, 4659, 4658
4026, 4879, 4880, 4891, 4890, 4648, 4649, 4660, 4659
4027, 4880, 4881, 4892, 4891, 4649, 4650, 4661, 4660
4028, 4881, 4882, 4893, 4892, 4650, 4651, 4662, 4661
4029, 4882, 4883, 4894, 4893, 4651, 4652, 4663, 4662
4030, 4883, 4884, 4895, 4894, 4652, 4653, 4664, 4663
4031, 4885, 4886, 4897, 4896, 4654, 4655, 4666, 4665
4032, 4886, 4887, 4898, 4897, 4655, 4656, 4667, 4666
4033, 4887, 4888, 4899, 4898, 4656, 4657, 4668, 4667
4034, 4888, 4889, 4900, 4899, 4657, 4658, 4669, 4668
4035, 4889, 4890, 4901, 4900, 4658, 4659, 4670, 4669
4036, 4890, 4891, 4902, 4901, 4659, 4660, 4671, 4670
4037, 4891, 4892, 4903, 4902, 4660, 4661, 4672, 4671
4038, 4892, 4893, 4904, 4903, 4661, 4662, 4673, 4672
4039, 4893, 4894, 4905, 4904, 4662, 4663, 4674, 4673
4040, 4894, 4895, 4906, 4905, 4663, 4664, 4675, 4674
4041, 4896, 4897, 4908, 4907, 4665, 4666, 4677, 4676
4042, 4897, 4898, 4909, 4908, 4666, 4667, 4678, 4677
4043, 4898, 4899, 4910, 4909, 4667, 4668, 4679, 4678
4044, 4899, 4900, 4911, 4910, 4668, 4669, 4680, 4679
4045, 4900, 4901, 4912, 4911, 4669, 4670, 4681, 4680
4046, 4901, 4902, 4913, 4912, 4670, 4671, 4682, 4681
4047, 4902, 4903, 4914, 4913, 4671, 4672, 4683, 4682
4048, 4903, 4904, 4915, 4914, 4672, 4673, 4684, 4683
4049, 4904, 4905, 4916, 4915, 4673, 4674, 4685, 4684
4050, 4905, 4906, 4917, 4916, 4674, 4675, 4686, 4685
4051, 4907, 4908, 4919, 4918, 4676, 4677, 4688, 4687
4052, 4908, 4909, 4920, 4919, 4677, 4678, 4689, 4688
4053, 4909, 4910, 4921, 4920, 4678, 4679, 4690, 4689
4054, 4910, 4911, 4922, 4921, 4679, 4680, 4691, 4690
4055, 4911, 4912, 4923, 4922, 4680, 4681, 4692, 4691
4056, 4912, 4913, 4924, 4923, 4681, 4682, 4693, 4692
4057, 4913, 4914, 4925, 4924, 4682, 4683, 4694, 4693
4058, 4914, 4915, 4926, 4925, 4683, 4684, 4695, 4694
4059, 4915, 4916, 4927, 4926, 4684, 4685, 4696, 4695
4060, 4916, 4917, 4928, 4927, 4685, 4686, 4697, 4696
4061, 4918, 4919, 4930, 4929, 4687, 4688, 4699, 4698
4062, 4919, 4920, 4931, 4930, 4688, 4689, 4700, 4699
4063, 4920, 4921, 4932, 4931, 4689, 4690, 4701, 4700
4064, 4921, 4922, 4933, 4932, 4690, 4691, 4702, 4701
4065, 4922, 4923, 4934, 4933, 4691, 4692, 4703, 4702
4066, 4923, 4924, 4935, 4934, 4692, 4693, 4704, 4703
4067, 4924, 4925, 4936, 4935, 4693, 4694, 4705, 4704
4068, 4925, 4926, 4937, 4936, 4694, 4695, 4706, 4705
4069, 4926, 4927, 4938, 4937, 4695, 4696, 4707, 4706
4070, 4927, 4928, 4939, 4938, 4696, 4697, 4708, 4707
4071, 4929, 4930, 4941, 4940, 4698, 4699, 4710, 4709
4072, 4930, 4931, 4942, 4941, 4699, 4700, 4711, 4710
4073, 4931, 4932, 4943, 4942, 4700, 4701, 4712, 4711
4074, 4932, 4933, 4944, 4943, 4701, 4702, 4713, 4712
4075, 4933, 4934, 4945, 4944, 4702, 4703, 4714, 4713
4076, 4934, 4935, 4946, 4945, 4703, 4704, 4715, 4714
4077, 4935, 4936, 4947, 4946, 4704, 4705, 4716, 4715
4078, 4936, 4937, 4948, 4947, 4705, 4706, 4717, 4716
4079, 4937, 4938, 4949, 4948, 4706, 4707, 4718, 4717
4080, 4938, 4939, 4950, 4949, 4707, 4708, 4719, 4718
4081, 4940, 4941, 4952, 4951, 4709, 4710, 4721, 4720
4082, 4941, 4942, 4953, 4952, 4710, 4711, 4722, 4721
4083, 4942, 4943, 4954, 4953, 4711, 4712, 4723, 4722
4084, 4943, 4944, 4955, 4954, 4712, 4713, 4724, 4723
4085, 4944, 4945, 4956, 4955, 4713, 4714, 4725, 4724
4086, 4945, 4946, 4957, 4956, 4714, 4715, 4726, 4725
4087, 4946, 4947, 4958, 4957, 4715, 4716, 4727, 4726
4088, 4947, 4948, 4959, 4958, 4716, 4717, 4728, 4727
4089, 4948, 4949, 4960, 4959, 4717, 4718, 4729, 4728
4090, 4949, 4950, 4961, 4960, 4718, 4719, 4730, 4729
4091, 4951, 4952, 4963, 4962, 4720, 4721, 4732, 4731
4092, 4952, 4953, 4964, 4963, 4721, 4722, 4733, 4732
4093, 4953, 4954, 4965, 4964, 4722, 4723, 4734, 4733
4094, 4954, 4955, 4966, 4965, 4723, 4724, 4735, 4734
4095, 4955, 4956, 4967, 4966, 4724, 4725, 4736, 4735
4096, 4956, 4957, 4968, 4967, 4725, 4726, 4737, 4736
4097, 4957, 4958, 4969, 4968, 4726, 4727, 4738, 4737
4098, 4958, 4959, 4970, 4969, 4727, 4728, 4739, 4738
4099, 4959, 4960, 4971, 4970, 4728, 4729, 4740, 4739
4100, 4960, 4961, 4972, 4971, 4729, 4730, 4741, 4740
4101, 4962, 4963, 4974, 4973, 4731, 4732, 4743, 4742
4102, 4963, 4964, 4975, 4974, 4732, 4733, 4744, 4743
4103, 4964, 4965, 4976, 4975, 4733, 4734, 4745, 4744
4104, 4965, 4966, 4977, 4976, 4734, 4735, 4746, 4745
4105, 4966, 4967, 4978, 4977, 4735, 4736, 4747, 4746
4106, 4967, 4968, 4979, 4978, 4736, 4737, 4748, 4747
4107, 4968, 4969, 4980, 4979, 4737, 4738, 4749, 4748
4108, 4969, 4970, 4981, 4980, 4738, 4739, 4750, 4749
4109, 4970, 4971, 4982, 4981, 4739, 4740, 4751, 4750
4110, 4971, 4972, 4983, 4982, 4740, 4741, 4752, 4751
4111, 4973, 4974, 4985, 4984, 4742, 4743, 4754, 4753
4112, 4974, 4975, 4986, 4985, 4743, 4744, 4755, 4754
4113, 4975, 4976, 4987, 4986, 4744, 4745, 4756, 4755
4114, 4976, 4977, 4988, 4987, 4745, 4746, 4757, 4756
4115, 4977, 4978, 4989, 4988, 4746, 4747, 4758, 4757
4116, 4978, 4979, 4990, 4989, 4747, 4748, 4759, 4758
4117, 4979, 4980, 4991, 4990, 4748, 4749, 4760, 4759
4118, 4980, 4981, 4992, 4991, 4749, 4750, 4761, 4760
4119, 4981, 4982, 4993, 4992, 4750, 4751, 4762, 4761
4120, 4982, 4983, 4994, 4993, 4751, 4752, 4763, 4762
4121, 4984, 4985, 4996, 4995, 4753, 4754, 4765, 4764
4122, 4985, 4986, 4997, 4996, 4754, 4755, 4766, 4765
4123, 4986, 4987, 4998, 4997, 4755, 4756, 4767, 4766
4124, 4987, 4988, 4999, 4998, 4756, 4757, 4768, 4767
4125, 4988, 4989, 5000, 4999, 4757, 4758, 4769, 4768
4126, 4989, 4990, 5001, 5000, 4758, 4759, 4770, 4769
4127, 4990, 4991, 5002, 5001, 4759, 4760, 4771, 4770
4128, 4991, 4992, 5003, 5002, 4760, 4761, 4772, 4771
4129, 4992, 4993, 5004, 5003, 4761, 4762, 4773, 4772
4130, 4993, 4994, 5005, 5004, 4762, 4763, 4774, 4773
4131, 4995, 4996, 5007, 5006, 4764, 4765, 4776, 4775
4132, 4996, 4997, 5008, 5007, 4765, 4766, 4777, 4776
4133, 4997, 4998, 5009, 5008, 4766, 4767, 4778, 4777
4134, 4998, 4999, 5010, 5009, 4767, 4768, 4779, 4778
4135, 4999, 5000, 5011, 5010, 4768, 4769, 4780, 4779
4136, 5000, 5001, 5012, 5011, 4769, 4770, 4781, 4780
4137, 5001, 5002, 5013, 5012, 4770, 4771, 4782, 4781
4138, 5002, 5003, 5014, 5013, 4771, 4772, 4783, 4782
4139, 5003, 5004, 5015, 5014, 4772, 4773, 4784, 4783
4140, 5004, 5005, 5016, 5015, 4773, 4774, 4785, 4784
4141, 5006, 5007, 5018, 5017, 4775, 4776, 4787, 4786
4142, 5007, 5008, 5019, 5018, 4776, 4777, 4788, 4787
4143, 5008, 5009, 5020, 5019, 4777, 4778, 4789, 4788
4144, 5009, 5010, 5021, 5020, 4778, 4779, 4790, 4789
4145, 5010, 5011, 5022, 5021, 4779, 4780, 4791, 4790
4146, 5011, 5012, 5023, 5022, 4780, 4781, 4792, 4791
4147, 5012, 5013, 5024, 5023, 4781, 4782, 4793, 4792
4148, 5013, 5014, 5025, 5024, 4782, 4783, 4794, 4793
4149, 5014, 5015, 5026, 5025, 4783, 4784, 4795, 4794
4150, 5015, 5016, 5027, 5026, 4784, 4785, 4796, 4795
4151, 5017, 5018, 5029, 5028, 4786, 4787, 4798, 4797
4152, 5018, 5019, 5030, 5029, 4787, 4788, 4799, 4798
4153, 5019, 5020, 5031, 5030, 4788, 4789, 4800, 4799
4154, 5020, 5021, 5032, 5031, 4789, 4790, 4801, 4800
4155, 5021, 5022, 5033, 5032, 4790, 4791, 4802, 4801
4156, 5022, 5023, 5034, 5033, 4791, 4792, 4803, 4802
4157, 5023, 5024, 5035, 5034, 4792, 4793, 4804, 4803
4158, 5024, 5025, 5036, 5035, 4793, 4794, 4805, 4804
4159, 5025, 5026, 5037, 5036, 4794, 4795, 4806, 4805
4160, 5026, 5027, 5038, 5037, 4795, 4796, 4807, 4806
4161, 5028, 5029, 5040, 5039, 4797, 4798, 4809, 4808
4162, 5029, 5030, 5041, 5040, 4798, 4799, 4810, 4809
4163, 5030, 5031, 5042, 5041, 4799, 4800, 4811, 4810
4164, 5031, 5032, 5043, 5042, 4800, 4801, 4812, 4811
4165, 5032, 5033, 5044, 5043, 4801, 4802, 4813, 4812
4166, 5033, 5034, 5045, 5044, 4802, 4803, 4814, 4813
4167, 5034, 5035, 5046, 5045, 4803, 4804, 4815, 4814
4168, 5035, 5036, 5047, 5046, 4804, 4805, 4816, 4815
4169, 5036, 5037, 5048, 5047, 4805, 4806, 4817, 4816
4170, 5037, 5038, 5049, 5048, 4806, 4807, 4818, 4817
4171, 5039, 5040, 5051, 5050, 4808, 4809, 4820, 4819
4172, 5040, 5041, 5052, 5051, 4809, 4810, 4821, 4820
4173, 5041, 5042, 5053, 5052, 4810, 4811, 4822, 4821
4174, 5042, 5043, 5054, 5053, 4811, 4812, 4823, 4822
4175, 5043, 5044, 5055, 5054, 4812, 4813, 4824, 4823
4176, 5044, 5045, 5056, 5055, 4813, 4814, 4825, 4824
4177, 5045, 5046, 5057, 5056, 4814, 4815, 4826, 4825
4178, 5046, 5047, 5058, 5057, 4815, 4816, 4827, 4826
4179, 5047, 5048, 5059, 5058, 4816, 4817, 4828, 4827
4180, 5048, 5049, 5060, 5059, 4817, 4818, 4829, 4828
4181, 5050, 5051, 5062, 5061, 4819, 4820, 4831, 4830
4182, 5051, 5052, 5063, 5062, 4820, 4821, 4832, 4831
4183, 5052, 5053, 5064, 5063, 4821, 4822, 4833, 4832
4184, 5053, 5054, 5065, 5064, 4822, 4823, 4834, 4833
4185, 5054, 5055, 5066, 5065, 4823, 4824, 4835, 4834
4186, 5055, 5056, 5067, 5066, 4824, 4825, 4836, 4835
4187, 5056, 5057, 5068, 5067, 4825, 4826, 4837, 4836
4188, 5057, 5058, 5069, 5068, 4826, 4827, 4838, 4837
4189, 5058, 5059, 5070, 5069, 4827, 4828, 4839, 4838
4190, 5059, 5060, 5071, 5070, 4828, 4829, 4840, 4839
4191, 5061, 5062, 5073, 5072, 4830, 4831, 4842, 4841
4192, 5062, 5063, 5074, 5073, 4831, 4832, 4843, 4842
4193, 5063, 5064, 5075, 5074, 4832, 4833, 4844, 4843
4194, 5064, 5065, 5076, 5075, 4833, 4834, 4845, 4844
4195, 5065, 5066, 5077, 5076, 4834, 4835, 4846, 4845
4196, 5066, 5067, 5078, 5077, 4835, 4836, 4847, 4846
4197, 5067, 5068, 5079, 5078, 4836, 4837, 4848, 4847
4198, 5068, 5069, 5080, 5079, 4837, 4838, 4849, 4848
4199, 5069, 5070, 5081, 5080, 4838, 4839, 4850, 4849
4200, 5070, 5071, 5082, 5081, 4839, 4840, 4851, 4850
4201, 5083, 5084, 5095, 5094, 4852, 4853, 4864, 4863
4202, 5084, 5085, 5096, 5095, 4853, 4854, 4865, 4864
4203, 5085, 5086, 5097, 5096, 4854, 4855, 4866, 4865
4204, 5086, 5087, 5098, 5097, 4855, 4856, 4867, 4866
4205, 5087, 5088, 5099, 5098, 4856, 4857, 4868, 4867
4206, 5088, 5089, 5100, 5099, 4857, 4858, 4869, 4868
4207, 5089, 5090, 5101, 5100, 4858, 4859, 4870, 4869
4208, 5090, 5091, 5102, 5101, 4859, 4860, 4871, 4870
4209, 5091, 5092, 5103, 5102, 4860, 4861, 4872, 4871
4210, 5092, 5093, 5104, 5103, 4861, 4862, 4873, 4872
4211, 5094, 5095, 5106, 5105, 4863, 4864, 4875, 4874
4212, 5095, 5096, 5107, 5106, 4864, 4865, 4876, 4875
4213, 5096, 5097, 5108, 5107, 4865, 4866, 4877, 4876
4214, 5097, 5098, 5109, 5108, 4866, 4867, 4878, 4877
4215, 5098, 5099, 5110, 5109, 4867, 4868, 4879, 4878
4216, 5099, 5100, 5111, 5110, 4868, 4869, 4880, 4879
4217, 5100, 5101, 5112, 5111, 4869, 4870, 4881, 4880
4218, 5101, 5102, 5113, 5112, 4870, 4871, 4882, 4881
4219, 5102, 5103, 5114, 5113, 4871, 4872, 4883, 4882
4220, 5103, 5104, 5115, 5114, 4872, 4873, 4884, 4883
4221, 5105, 5106, 5117, 5116, 4874, 4875, 4886, 4885
4222, 5106, 5107, 5118, 5117, 4875, 4876, 4887, 4886
4223, 5107, 5108, 5119, 5118, 4876, 4877, 4888, 4887
4224, 5108, 5109, 5120, 5119, 4877, 4878, 4889, 4888
4225, 5109, 5110, 5121, 5120, 4878, 4879, 4890, 4889
4226, 5110, 5111, 5122, 5121, 4879, 4880, 4891, 4890
4227, 5111, 5112, 5123, 5122, 4880, 4881, 4892, 4891
4228, 5112, 5113, 5124, 5123, 4881, 4882, 4893, 4892
4229, 5113, 5114, 5125, 5124, 4882, 4883, 4894, 4893
4230, 5114, 5115, 5126, 5125, 4883, 4884, 4895, 4894
4231, 5116, 5117, 5128, 5127, 4885, 4886, 4897, 4896
4232, 5117, 5118, 5129, 5128, 4886, 4887, 4898, 4897
4233, 5118, 5119, 5130, 5129, 4887, 4888, 4899, 4898
4234, 5119, 5120, 5131, 5130, 4888, 4889, 4900, 4899
4235, 5120, 5121, 5132, 5131, 4889, 4890, 4901, 4900
4236, 5121, 5122, 5133, 5132, 4890, 4891, 4902, 4901
4237, 5122, 5123, 5134, 5133, 4891, 4892, 4903, 4902
4238, 5123, 5124, 5135, 5134, 4892, 4893, 4904, 4903
4239, 5124, 5125, 5136, 5135, 4893, 4894, 4905, 4904
4240, 5125, 5126, 5137, 5136, 4894, 4895, 4906, 4905
4241, 5127, 5128, 5139, 5138, 4896, 4897, 4908, 4907
4242, 5128, 5129, 5140, 5139, 4897, 4898, 4909, 4908
4243, 5129, 5130, 5141, 5140, 4898, 4899, 4910, 4909
4244, 5130, 5131, 5142, 5141, 4899, 4900, 4911, 4910
4245, 5131, 5132, 5143, 5142, 4900, 4901, 4912, 4911
4246, 5132, 5133, 5144, 5143, 4901, 4902, 4913, 4912
4247, 5133, 5134, 5145, 5144, 4902, 4903, 4914, 4913
4248, 5134, 5135, 5146, 5145, 4903, 4904, 4915, 4914
4249, 5135, 5136, 5147, 5146, 4904, 4905, 4916, 4915
4250, 5136, 5137, 5148, 5147, 4905, 4906, 4917, 4916
4251, 5138, 5139, 5150, 5149, 4907, 4908, 4919, 4918
4252, 5139, 5140, 5151, 5150, 4908, 4909, 4920, 4919
4253, 5140, 5141, 5152, 5151, 4909, 4910, 4921, 4920
4254, 5141, 5142, 5153, 5152, 4910, 4911, 4922, 4921
4255, 5142, 5143, 5154, 5153, 4911, 4912, 4923, 4922
4256, 5143, 5144, 5155, 5154, 4912, 4913, 4924, 4923
4257, 5144, 5145, 5156, 5155, 4913, 4914, 4925, 4924
4258, 5145, 5146, 5157, 5156, 4914, 4915, 4926, 4925
4259, 5146, 5147, 5158, 5157, 4915, 4916, 4927, 4926
4260, 5147, 5148, 5159, 5158, 4916, 4917, 4928, 4927
4261, 5149, 5150, 5161, 5160, 4918, 4919, 4930, 4929
4262, 5150, 5151, 5162, 5161, 4919, 4920, 4931, 4930
4263, 5151, 5152, 5163, 5162, 4920, 4921, 4932, 4931
4264, 5152, 5153, 5164, 5163, 4921, 4922, 4933, 4932
4265, 5153, 5154, 5165, 5164, 4922, 4923, 4934, 4933
4266, 5154, 5155, 5166, 5165, 4923, 4924, 4935, 4934
4267, 5155, 5156, 5167, 5166, 4924, 4925, 4936, 4935
4268, 5156, 5157, 5168, 5167, 4925, 4926, 4937, 4936
4269, 5157, 5158, 5169, 5168, 4926, 4927, 4938, 4937
4270, 5158, 5159, 5170, 5169, 4927, 4928, 4939, 4938
4271, 5160, 5161, 5172, 5171, 4929, 4930, 4941, 4940
4272, 5161, 5162, 5173, 5172, 4930, 4931, 4942, 4941
4273, 5162, 5163, 5174, 5173, 4931, 4932, 4943, 4942
4274, 5163, 5164, 5175, 5174, 4932, 4933, 4944, 4943
4275, 5164, 5165, 5176, 5175, 4933, 4934, 4945, 4944
4276, 5165, 5166, 5177, 5176, 4934, 4935, 4946, 4945
4277, 5166, 5167, 5178, 5177, 4935, 4936, 4947, 4946
4278, 5167, 5168, 5179, 5178, 4936, 4937, 4948, 4947
4279, 5168, 5169, 5180, 5179, 4937, 4938, 4949, 4948
4280, 5169, 5170, 5181, 5180, 4938, 4939, 4950, 4949
4281, 5171, 5172, 5183, 5182, 4940, 4941, 4952, 4951
4282, 5172, 5173, 5184, 5183, 4941, 4942, 4953, 4952
4283, 5173, 5174, 5185, 5184, 4942, 4943, 4954, 4953
4284, 5174, 5175, 5186, 5185, 4943, 4944, 4955, 4954
4285, 5175, 5176, 5187, 5186, 4944, 4945, 4956, 4955
4286, 5176, 5177, 5188, 5187, 4945, 4946, 4957, 4956
4287, 5177, 5178, 5189, 5188, 4946, 4947, 4958, 4957
4288, 5178, 5179, 5190, 5189, 4947, 4948, 4959, 4958
4289, 5179, 5180, 5191, 5190, 4948, 4949, 4960, 4959
4290, 5180, 5181, 5192, 5191, 4949, 4950, 4961, 4960
4291, 5182, 5183, 5194, 5193, 4951, 4952, 4963, 4962
4292, 5183, 5184, 5195, 5194, 4952, 4953, 4964, 4963
4293, 5184, 5185, 5196, 5195, 4953, 4954, 4965, 4964
4294, 5185, 5186, 5197, 5196, 4954, 4955, 4966, 4965
4295, 5186, 5187, 5198, 5197, 4955, 4956, 4967, 4966
4296, 5187, 5188, 5199, 5198, 4956, 4957, 4968, 4967
4297, 5188, 5189, 5200, 5199, 4957, 4958, 4969, 4968
4298, 5189, 5190, 5201, 5200, 4958, 4959, 4970, 4969
4299, 5190, 5191, 5202, 5201, 4959, 4960, 4971, 4970
4300, 5191, 5192, 5203, 5202, 4960, 4961, 4972, 4971
4301, 5193, 5194, 5205, 5204, 4962, 4963, 4974, 4973
4302, 5194, 5195, 5206, 5205, 4963, 4964, 4975, 4974
4303, 5195, 5196, 5207, 5206, 4964, 4965, 4976, 4975
4304, 5196, 5197, 5208, 5207, 4965, 4966, 4977, 4976
4305, 5197, 5198, 5209, 5208, 4966, 4967, 4978, 4977
4306, 5198, 5199, 5210, 5209, 4967, 4968, 4979, 4978
4307, 5199, 5200, 5211, 5210, 4968, 4969, 4980, 4979
4308, 5200, 5201, 5212, 5211, 4969, 4970, 4981, 4980
4309, 5201, 5202, 5213, 5212, 4970, 4971, 4982, 4981
4310, 5202, 5203, 5214, 5213, 4971, 4972, 4983, 4982
4311, 5204, 5205, 5216, 5215, 4973, 4974, 4985, 4984
4312, 5205, 5206, 5217, 5216, 4974, 4975, 4986, 4985
4313, 5206, 5207, 5218, 5217, 4975, 4976, 4987, 4986
4314, 5207, 5208, 5219, 5218, 4976, 4977, 4988, 4987
4315, 5208, 5209, 5220, 5219, 4977, 4978, 4989, 4988
4316, 5209, 5210, 5221, 5220, 4978, 4979, 4990, 4989
4317, 5210, 5211, 5222, 5221, 4979, 4980, 4991, 4990
4318, 5211, 5212, 5223, 5222, 4980, 4981, 4992, 4991
4319, 5212, 5213, 5224, 5223, 4981, 4982, 4993, 4992
4320, 5213, 5214, 5225, 5224, 4982, 4983, 4994, 4993
4321, 5215, 5216, 5227, 5226, 4984, 4985, 4996, 4995
4322, 5216, 5217, 5228, 5227, 4985, 4986, 4997, 4996
4323, 5217, 5218, 5229, 5228, 4986, 4987, 4998, 4997
4324, 5218, 5219, 5230, 5229, 4987, 4988, 4999, 4998
4325, 5219, 5220, 5231, 5230, 4988, 4989, 5000, 4999
4326, 5220, 5221, 5232, 5231, 4989, 4990, 5001, 5000
4327, 5221, 5222, 5233, 5232, 4990, 4991, 5002, 5001
4328, 5222, 5223, 5234, 5233, 4991, 4992, 5003, 5002
4329, 5223, 5224, 5235, 5234, 4992, 4993, 5004, 5003
4330, 5224, 5225, 5236, 5235, 4993, 4994, 5005, 5004
4331, 5226, 5227, 5238, 5237, 4995, 4996, 5007, 5006
4332, 5227, 5228, 5239, 5238, 4996, 4997, 5008, 5007
4333, 5228, 5229, 5240, 5239, 4997, 4998, 5009, 5008
4334, 5229, 5230, 5241, 5240, 4998, 4999, 5010, 5009
4335, 5230, 5231, 5242, 5241, 4999, 5000, 5011, 5010
4336, 5231, 5232, 5243, 5242, 5000, 5001, 5012, 5011
4337, 5232, 5233, 5244, 5243, 5001, 5002, 5013, 5012
4338, 5233, 5234, 5245, 5244, 5002, 5003, 5014, 5013
4339, 5234, 5235, 5246, 5245, 5003, 5004, 5015, 5014
4340, 5235, 5236, 5247, 5246, 5004, 5005, 5016, 5015
4341, 5237, 5238, 5249, 5248, 5006, 5007, 5018, 5017
4342, 5238, 5239, 5250, 5249, 5007, 5008, 5019, 5018
4343, 5239, 5240, 5251, 5250, 5008, 5009, 5020, 5019
4344, 5240, 5241, 5252, 5251, 5009, 5010, 5021, 5020
4345, 5241, 5242, 5253, 5252, 5010, 5011, 5022, 5021
4346, 5242, 5243, 5254, 5253, 5011, 5012, 5023, 5022
4347, 5243, 5244, 5255, 5254, 5012, 5013, 5024, 5023
4348, 5244, 5245, 5256, 5255, 5013, 5014, 5025, 5024
4349, 5245, 5246, 5257, 5256, 5014, 5015, 5026, 5025
4350, 5246, 5247, 5258, 5257, 5015, 5016, 5027, 5026
4351, 5248, 5249, 5260, 5259, 5017, 5018, 5029, 5028
4352, 5249, 5250, 5261, 5260, 5018, 5019, 5030, 5029
4353, 5250, 5251, 5262, 5261, 5019, 5020, 5031, 5030
4354, 5251, 5252, 5263, 5262, 5020, 5021, 5032, 5031
4355, 5252, 5253, 5264, 5263, 5021, 5022, 5033, 5032
4356, 5253, 5254, 5265, 5264, 5022, 5023, 5034, 5033
4357, 5254, 5255, 5266, 5265, 5023, 5024, 5035, 5034
4358, 5255, 5256, 5267, 5266, 5024, 5025, 5036, 5035
4359, 5256, 5257, 5268, 5267, 5025, 5026, 5037, 5036
4360, 5257, 5258, 5269, 5268, 5026, 5027, 5038, 5037
4361, 5259, 5260, 5271, 5270, 5028, 5029, 5040, 5039
4362, 5260, 5261, 5272, 5271, 5029, 5030, 5041, 5040
4363, 5261, 5262, 5273, 5272, 5030, 5031, 5042, 5041
4364, 5262, 5263, 5274, 5273, 5031, 5032, 5043, 5042
4365, 5263, 5264, 5275, 5274, 5032, 5033, 5044, 5043
4366, 5264, 5265, 5276, 5275, 5033, 5034, 5045, 5044
4367, 5265, 5266, 5277, 5276, 5034, 5035, 5046, 5045
4368, 5266, 5267, 5278, 5277, 5035, 5036, 5047, 5046
4369, 5267, 5268, 5279, 5278, 5036, 5037, 5048, 5047
4370, 5268, 5269, 5280, 5279, 5037, 5038, 5049, 5048
4371, 5270, 5271, 5282, 5281, 5039, 5040, 5051, 5050
4372, 5271, 5272, 5283, 5282, 5040, 5041, 5052, 5051
4373, 5272, 5273, 5284, 5283, 5041, 5042, 5053, 5052
4374, 5273, 5274, 5285, 5284, 5042, 5043, 5054, 5053
4375, 5274, 5275, 5286, 5285, 5043, 5044, 5055, 5054
4376, 5275, 5276, 5287, 5286, 5044, 5045, 5056, 5055
4377, 5276, 5277, 5288, 5287, 5045, 5046, 5057, 5056
4378, 5277, 5278, 5289, 5288, 5046, 5047, 5058, 5057
4379, 5278, 5279, 5290, 5289, 5047, 5048, 5059, 5058
4380, 5279, 5280, 5291, 5290, 5048, 5049, 5060, 5059
4381, 5281, 5282, 5293, 5292, 5050, 5051, 5062, 5061
4382, 5282, 5283, 5294, 5293, 5051, 5052, 5063, 5062
4383, 5283, 5284, 5295, 5294, 5052, 5053, 5064, 5063
4384, 5284, 5285, 5296, 5295, 5053, 5054, 5065, 5064
4385, 5285, 5286, 5297, 5296, 5054, 5055, 5066, 5065
4386, 5286, 5287, 5298, 5297, 5055, 5056, 5067, 5066
4387, 5287, 5288, 5299, 5298, 5056, 5057, 5068, 5067
4388, 5288, 5289, 5300, 5299, 5057, 5058, 5069, 5068
4389, 5289, 5290, 5301, 5300, 5058, 5059, 5070, 5069
4390, 5290, 5291, 5302, 5301, 5059, 5060, 5071, 5070
4391, 5292, 5293, 5304, 5303, 5061, 5062, 5073, 5072
4392, 5293, 5294, 5305, 5304, 5062, 5063, 5074, 5073
4393, 5294, 5295, 5306, 5305, 5063, 5064, 5075, 5074
4394, 5295, 5296, 5307, 5306, 5064, 5065, 5076, 5075
4395, 5296, 5297, 5308, 5307, 5065, 5066, 5077, 5076
4396, 5297, 5298, 5309, 5308, 5066, 5067, 5078, 5077
4397, 5298, 5299, 5310, 5309, 5067, 5068, 5079, 5078
4398, 5299, 5300, 5311, 5310, 5068, 5069, 5080, 5079
4399, 5300, 5301, 5312, 5311, 5069, 5070, 5081, 5080
4400, 5301, 5302, 5313, 5312, 5070, 5071, 5082, 5081
4401, 5314, 5315, 5326, 5325, 5083, 5084, 5095, 5094
4402, 5315, 5316, 5327, 5326, 5084, 5085, 5096, 5095
4403, 5316, 5317, 5328, 5327, 5085, 5086, 5097, 5096
4404, 5317, 5318, 5329, 5328, 5086, 5087, 5098, 5097
4405, 5318, 5319, 5330, 5329, 5087, 5088, 5099, 5098
4406, 5319, 5320, 5331, 5330, 5088, 5089, 5100, 5099
4407, 5320, 5321, 5332, 5331, 5089, 5090, 5101, 5100
4408, 5321, 5322, 5333, 5332, 5090, 5091, 5102, 5101
4409, 5322, 5323, 5334, 5333, 5091, 5092, 5103, 5102
4410, 5323, 5324, 5335, 5334, 5092, 5093, 5104, 5103
4411, 5325, 5326, 5337, 5336, 5094, 5095, 5106, 5105
4412, 5326, 5327, 5338, 5337, 5095, 5096, 5107, 5106
4413, 5327, 5328, 5339, 5338, 5096, 5097, 5108, 5107
4414, 5328, 5329, 5340, 5339, 5097, 5098, 5109, 5108
4415, 5329, 5330, 5341, 5340, 5098, 5099, 5110, 5109
4416, 5330, 5331, 5342, 5341, 5099, 5100, 5111, 5110
4417, 5331, 5332, 5343, 5342, 5100, 5101, 5112, 5111
4418, 5332, 5333, 5344, 5343, 5101, 5102, 5113, 5112
4419, 5333, 5334, 5345, 5344, 5102, 5103, 5114, 5113
4420, 5334, 5335, 5346, 5345, 5103, 5104, 5115, 5114
4421, 5336, 5337, 5348, 5347, 5105, 5106, 5117, 5116
4422, 5337, 5338, 5349, 5348, 5106, 5107, 5118, 5117
4423, 5338, 5339, 5350, 5349, 5107, 5108, 5119, 5118
4424, 5339, 5340, 5351, 5350, 5108, 5109, 5120, 5119
4425, 5340, 5341, 5352, 5351, 5109, 5110, 5121, 5120
4426, 5341, 5342, 5353, 5352, 5110, 5111, 5122, 5121
4427, 5342, 5343, 5354, 5353, 5111, 5112, 5123, 5122
4428, 5343, 5344, 5355, 5354, 5112, 5113, 5124, 5123
4429, 5344, 5345, 5356, 5355, 5113, 5114, 5125, 5124
4430, 5345, 5346, 5357, 5356, 5114, 5115, 5126, 5125
4431, 5347, 5348, 5359, 5358, 5116, 5117, 5128, 5127
4432, 5348, 5349, 5360, 5359, 5117, 5118, 5129, 5128
4433, 5349, 5350, 5361, 5360, 5118, 5119, 5130, 5129
4434, 5350, 5351, 5362, 5361, 5119, 5120, 5131, 5130
4435, 5351, 5352, 5363, 5362, 5120, 5121, 5132, 5131
4436, 5352, 5353, 5364, 5363, 5121, 5122, 5133, 5132
4437, 5353, 5354, 5365, 5364, 5122, 5123, 5134, 5133
4438, 5354, 5355, 5366, 5365, 5123, 5124, 5135, 5134
4439, 5355, 5356, 5367, 5366, 5124, 5125, 5136, 5135
4440, 5356, 5357, 5368, 5367, 5125, 5126, 5137, 5136
4441, 5358, 5359, 5370, 5369, 5127, 5128, 5139, 5138
4442, 5359, 5360, 5371, 5370, 5128, 5129, 5140, 5139
4443, 5360, 5361, 5372, 5371, 5129, 5130, 5141, 5140
4444, 5361, 5362, 5373, 5372, 5130, 5131, 5142, 5141
4445, 5362, 5363, 5374, 5373, 5131, 5132, 5143, 5142
4446, 5363, 5364, 5375, 5374, 5132, 5133, 5144, 5143
4447, 5364, 5365, 5376, 5375, 5133, 5134, 5145, 5144
4448, 5365, 5366, 5377, 5376, 5134, 5135, 5146, 5145
4449, 5366, 5367, 5378, 5377, 5135, 5136, 5147, 5146
4450, 5367, 5368, 5379, 5378, 5136, 5137, 5148, 5147
4451, 5369, 5370, 5381, 5380, 5138, 5139, 5150, 5149
4452, 5370, 5371, 5382, 5381, 5139, 5140, 5151, 5150
4453, 5371, 5372, 5383, 5382, 5140, 5141, 5152, 5151
4454, 5372, 5373, 5384, 5383, 5141, 5142, 5153, 5152
4455, 5373, 5374, 5385, 5384, 5142, 5143, 5154, 5153
4456, 5374, 5375, 5386, 5385, 5143, 5144, 5155, 5154
4457, 5375, 5376, 5387, 5386, 5144, 5145, 5156, 5155
4458, 5376, 5377, 5388, 5387, 5145, 5146, 5157, 5156
4459, 5377, 5378, 5389, 5388, 5146, 5147, 5158, 5157
4460, 5378, 5379, 5390, 5389, 5147, 5148, 5159, 5158
4461, 5380, 5381, 5392, 5391, 5149, 5150, 5161, 5160
4462, 5381, 5382, 5393, 5392, 5150, 5151, 5162, 5161
4463, 5382, 5383, 5394, 5393, 5151, 5152, 5163, 5162
4464, 5383, 5384, 5395, 5394, 5152, 5153, 5164, 5163
4465, 5384, 5385, 5396, 5395, 5153, 5154, 5165, 5164
4466, 5385, 5386, 5397, 5396, 5154, 5155, 5166, 5165
4467, 5386, 5387, 5398, 5397, 5155, 5156, 5167, 5166
4468, 5387, 5388, 5399, 5398, 5156, 5157, 5168, 5167
4469, 5388, 5389, 5400, 5399, 5157, 5158, 5169, 5168
4470, 5389, 5390, 5401, 5400, 5158, 5159, 5170, 5169
4471, 5391, 5392, 5403, 5402, 5160, 5161, 5172, 5171
4472, 5392, 5393, 5404, 5403, 5161, 5162, 5173, 5172
4473, 5393, 5394, 5405, 5404, 5162, 5163, 5174, 5173
4474, 5394, 5395, 5406, 5405, 5163, 5164, 5175, 5174
4475, 5395, 5396, 5407, 5406, 5164, 5165, 5176, 5175
4476, 5396, 5397, 5408, 5407, 5165, 5166, 5177, 5176
4477, 5397, 5398, 5409, 5408, 5166, 5167, 5178, 5177
4478, 5398, 5399, 5410, 5409, 5167, 5168, 5179, 5178
4479, 5399, 5400, 5411, 5410, 5168, 5169, 5180, 5179
4480, 5400, 5401, 5412, 5411, 5169, 5170, 5181, 5180
4481, 5402, 5403, 5414, 5413, 5171, 5172, 5183, 5182
4482, 5403, 5404, 5415, 5414, 5172, 5173, 5184, 5183
4483, 5404, 5405, 5416, 5415, 5173, 5174, 5185, 5184
4484, 5405, 5406, 5417, 5416, 5174, 5175, 5186, 5185
4485, 5406, 5407, 5418, 5417, 5175, 5176, 5187, 5186
4486, 5407, 5408, 5419, 5418, 5176, 5177, 5188, 5187
4487, 5408, 5409, 5420, 5419, 5177, 5178, 5189, 5188
4488, 5409, 5410, 5421, 5420, 5178, 5179, 5190, 5189
4489, 5410, 5411, 5422, 5421, 5179, 5180, 5191, 5190
4490, 5411, 5412, 5423, 5422, 5180, 5181, 5192, 5191
4491, 5413, 5414, 5425, 5424, 5182, 5183, 5194, 5193
4492, 5414, 5415, 5426, 5425, 5183, 5184, 5195, 5194
4493, 5415, 5416, 5427, 5426, 5184, 5185, 5196, 5195
4494, 5416, 5417, 5428, 5427, 5185, 5186, 5197, 5196
4495, 5417, 5418, 5429, 5428, 5186, 5187, 5198, 5197
4496, 5418, 5419, 5430, 5429, 5187, 5188, 5199, 5198
4497, 5419, 5420, 5431, 5430, 5188, 5189, 5200, 5199
4498, 5420, 5421, 5432, 5431, 5189, 5190, 5201, 5200
4499, 5421, 5422, 5433, 5432, 5190, 5191, 5202, 5201
4500, 5422, 5423, 5434, 5433, 5191, 5192, 5203, 5202
4501, 5424, 5425, 5436, 5435, 5193, 5194, 5205, 5204
4502, 5425, 5426, 5437, 5436, 5194, 5195, 5206, 5205
4503, 5426, 5427, 5438, 5437, 5195, 5196, 5207, 5206
4504, 5427, 5428, 5439, 5438, 5196, 5197, 5208, 5207
4505, 5428, 5429, 5440, 5439, 5197, 5198, 5209, 5208
4506, 5429, 5430, 5441, 5440, 5198, 5199, 5210, 5209
4507, 5430, 5431, 5442, 5441, 5199, 5200, 5211, 5210
4508, 5431, 5432, 5443, 5442, 5200, 5201, 5212, 5211
4509, 5432, 5433, 5444, 5443, 5201, 5202, 5213, 5212
4510, 5433, 5434, 5445, 5444, 5202, 5203, 5214, 5213
4511, 5435, 5436, 5447, 5446, 5204, 5205, 5216, 5215
4512, 5436, 5437, 5448, 5447, 5205, 5206, 5217, 5216
4513, 5437, 5438, 5449, 5448, 5206, 5207, 5218, 5217
4514, 5438, 5439, 5450, 5449, 5207, 5208, 5219, 5218
4515, 5439, 5440, 5451, 5450, 5208, 5209, 5220, 5219
4516, 5440, 5441, 5452, 5451, 5209, 5210, 5221, 5220
4517, 5441, 5442, 5453, 5452, 5210, 5211, 5222, 5221
4518, 5442, 5443, 5454, 5453, 5211, 5212, 5223, 5222
4519, 5443, 5444, 5455, 5454, 5212, 5213, 5224, 5223
4520, 5444, 5445, 5456, 5455, 5213, 5214, 5225, 5224
4521, 5446, 5447, 5458, 5457, 5215, 5216, 5227, 5226
4522, 5447, 5448, 5459, 5458, 5216, 5217, 5228, 5227
4523, 5448, 5449, 5460, 5459, 5217, 5218, 5229, 5228
4524, 5449, 5450, 5461, 5460, 5218, 5219, 5230, 5229
4525, 5450, 5451, 5462, 5461, 5219, 5220, 5231, 5230
4526, 5451, 5452, 5463, 5462, 5220, 5221, 5232, 5231
4527, 5452, 5453, 5464, 5463, 5221, 5222, 5233, 5232
4528, 5453, 5454, 5465, 5464, 5222, 5223, 5234, 5233
4529, 5454, 5455, 5466, 5465, 5223, 5224, 5235, 5234
4530, 5455, 5456, 5467, 5466, 5224, 5225, 5236, 5235
4531, 5457, 5458, 5469, 5468, 5226, 5227, 5238, 5237
4532, 5458, 5459, 5470, 5469, 5227, 5228, 5239, 5238
4533, 5459, 5460, 5471, 5470, 5228, 5229, 5240, 5239
4534, 5460, 5461, 5472, 5471, 5229, 5230, 5241, 5240
4535, 5461, 5462, 5473, 5472, 5230, 5231, 5242, 5241
4536, 5462, 5463, 5474, 5473, 5231, 5232, 5243, 5242
4537, 5463, 5464, 5475, 5474, 5232, 5233, 5244, 5243
4538, 5464, 5465, 5476, 5475, 5233, 5234, 5245, 5244
4539, 5465, 5466, 5477, 5476, 5234, 5235, 5246, 5245
4540, 5466, 5467, 5478, 5477, 5235, 5236, 5247, 5246
4541, 5468, 5469, 5480, 5479, 5237, 5238, 5249, 5248
4542, 5469, 5470, 5481, 5480, 5238, 5239, 5250, 5249
4543, 5470, 5471, 5482, 5481, 5239, 5240, 5251, 5250
4544, 5471, 5472, 5483, 5482, 5240, 5241, 5252, 5251
4545, 5472, 5473, 5484, 5483, 5241, 5242, 5253, 5252
4546, 5473, 5474, 5485, 5484, 5242, 5243, 5254, 5253
4547, 5474, 5475, 5486, 5485, 5243, 5244, 5255, 5254
4548, 5475, 5476, 5487, 5486, 5244, 5245, 5256, 5255
4549, 5476, 5477, 5488, 5487, 5245, 5246, 5257, 5256
4550, 5477, 5478, 5489, 5488, 5246, 5247, 5258, 5257
4551, 5479, 5480, 5491, 5490, 5248, 5249, 5260, 5259
4552, 5480, 5481, 5492, 5491, 5249, 5250, 5261, 5260
4553, 5481, 5482, 5493, 5492, 5250, 5251, 5262, 5261
4554, 5482, 5483, 5494, 5493, 5251, 5252, 5263, 5262
4555, 5483, 5484, 5495, 5494, 5252, 5253, 5264, 5263
4556, 5484, 5485, 5496, 5495, 5253, 5254, 5265, 5264
4557, 5485, 5486, 5497, 5496, 5254, 5255, 5266, 5265
4558, 5486, 5487, 5498, 5497, 5255, 5256, 5267, 5266
4559, 5487, 5488, 5499, 5498, 5256, 5257, 5268, 5267
4560, 5488, 5489, 5500, 5499, 5257, 5258, 5269, 5268
4561, 5490, 5491, 5502, 5501, 5259, 5260, 5271, 5270
4562, 5491, 5492, 5503, 5502, 5260, 5261, 5272, 5271
4563, 5492, 5493, 5504, 5503, 5261, 5262, 5273, 5272
4564, 5493, 5494, 5505, 5504, 5262, 5263, 5274, 5273
4565, 5494, 5495, 5506, 5505, 5263, 5264, 5275, 5274
4566, 5495, 5496, 5507, 5506, 5264, 5265, 5276, 5275
4567, 5496, 5497, 5508, 5507, 5265, 5266, 5277, 5276
4568, 5497, 5498, 5509, 5508, 5266, 5267, 5278, 5277
4569, 5498, 5499, 5510, 5509, 5267, 5268, 5279, 5278
4570, 5499, 5500, 5511, 5510, 5268, 5269, 5280, 5279
4571, 5501, 5502, 5513, 5512, 5270, 5271, 5282, 5281
4572, 5502, 5503, 5514, 5513, 5271, 5272, 5283, 5282
4573, 5503, 5504, 5515, 5514, 5272, 5273, 5284, 5283
4574, 5504, 5505, 5516, 5515, 5273, 5274, 5285, 5284
4575, 5505, 5506, 5517, 5516, 5274, 5275, 5286, 5285
4576, 5506, 5507, 5518, 5517, 5275, 5276, 5287, 5286
4577, 5507, 5508, 5519, 5518, 5276, 5277, 5288, 5287
4578, 5508, 5509, 5520, 5519, 5277, 5278, 5289, 5288
4579, 5509, 5510, 5521, 5520, 5278, 5279, 5290, 5289
4580, 5510, 5511, 5522, 5521, 5279, 5280, 5291, 5290
4581, 5512, 5513, 5524, 5523, 5281, 5282, 5293, 5292
4582, 5513, 5514, 5525, 5524, 5282, 5283, 5294, 5293
4583, 5514, 5515, 5526, 5525, 5283, 5284, 5295, 5294
4584, 5515, 5516, 5527, 5526, 5284, 5285, 5296, 5295
4585, 5516, 5517, 5528, 5527, 5285, 5286, 5297, 5296
4586, 5517, 5518, 5529, 5528, 5286, 5287, 5298, 5297
4587, 5518, 5519, 5530, 5529, 5287, 5288, 5299, 5298
4588, 5519, 5520, 5531, 5530, 5288, 5289, 5300, 5299
4589, 5520, 5521, 5532, 5531, 5289, 5290, 5301, 5300
4590, 5521, 5522, 5533, 5532, 5290, 5291, 5302, 5301
4591, 5523, 5524, 5535, 5534, 5292, 5293, 5304, 5303
4592, 5524, 5525, 5536, 5535, 5293, 5294, 5305, 5304
4593, 5525, 5526, 5537, 5536, 5294, 5295, 5306, 5305
4594, 5526, 5527, 5538, 5537, 5295, 5296, 5307, 5306
4595, 5527, 5528, 5539, 5538, 5296, 5297, 5308, 5307
4596, 5528, 5529, 5540, 5539, 5297, 5298, 5309, 5308
4597, 5529, 5530, 5541, 5540, 5298, 5299, 5310, 5309
4598, 5530, 5531, 5542, 5541, 5299, 5300, 5311, 5310
4599, 5531, 5532, 5543, 5542, 5300, 5301, 5312, 5311
4600, 5532, 5533, 5544, 5543, 5301, 5302, 5313, 5312
4601, 5545, 5546, 5557, 5556, 5314, 5315, 5326, 5325
4602, 5546, 5547, 5558, 5557, 5315, 5316, 5327, 5326
4603, 5547, 5548, 5559, 5558, 5316, 5317, 5328, 5327
4604, 5548, 5549, 5560, 5559, 5317, 5318, 5329, 5328
4605, 5549, 5550, 5561, 5560, 5318, 5319, 5330, 5329
4606, 5550, 5551, 5562, 5561, 5319, 5320, 5331, 5330
4607, 5551, 5552, 5563, 5562, 5320, 5321, 5332, 5331
4608, 5552, 5553, 5564, 5563, 5321, 5322, 5333, 5332
4609, 5553, 5554, 5565, 5564, 5322, 5323, 5334, 5333
4610, 5554, 5555, 5566, 5565, 5323, 5324, 5335, 5334
4611, 5556, 5557, 5568, 5567, 5325, 5326, 5337, 5336
4612, 5557, 5558, 5569, 5568, 5326, 5327, 5338, 5337
4613, 5558, 5559, 5570, 5569, 5327, 5328, 5339, 5338
4614, 5559, 5560, 5571, 5570, 5328, 5329, 5340, 5339
4615, 5560, 5561, 5572, 5571, 5329, 5330, 5341, 5340
4616, 5561, 5562, 5573, 5572, 5330, 5331, 5342, 5341
4617, 5562, 5563, 5574, 5573, 5331, 5332, 5343, 5342
4618, 5563, 5564, 5575, 5574, 5332, 5333, 5344, 5343
4619, 5564, 5565, 5576, 5575, 5333, 5334, 5345, 5344
4620, 5565, 5566, 5577, 5576, 5334, 5335, 5346, 5345
4621, 5567, 5568, 5579, 5578, 5336, 5337, 5348, 5347
4622, 5568, 5569, 5580, 5579, 5337, 5338, 5349, 5348
4623, 5569, 5570, 5581, 5580, 5338, 5339, 5350, 5349
4624, 5570, 5571, 5582, 5581, 5339, 5340, 5351, 5350
4625, 5571, 5572, 5583, 5582, 5340, 5341, 5352, 5351
4626, 5572, 5573, 5584, 5583, 5341, 5342, 5353, 5352
4627, 5573, 5574, 5585, 5584, 5342, 5343, 5354, 5353
4628, 5574, 5575, 5586, 5585, 5343, 5344, 5355, 5354
4629, 5575, 5576, 5587, 5586, 5344, 5345, 5356, 5355
4630, 5576, 5577, 5588, 5587, 5345, 5346, 5357, 5356
4631, 5578, 5579, 5590, 5589, 5347, 5348, 5359, 5358
4632, 5579, 5580, 5591, 5590, 5348, 5349, 5360, 5359
4633, 5580, 5581, 5592, 5591, 5349, 5350, 5361, 5360
4634, 5581, 5582, 5593, 5592, 5350, 5351, 5362, 5361
4635, 5582, 5583, 5594, 5593, 5351, 5352, 5363, 5362
4636, 5583, 5584, 5595, 5594, 5352, 5353, 5364, 5363
4637, 5584, 5585, 5596, 5595, 5353, 5354, 5365, 5364
4638, 5585, 5586, 5597, 5596, 5354, 5355, 5366, 5365
4639, 5586, 5587, 5598, 5597, 5355, 5356, 5367, 5366
4640, 5587, 5588, 5599, 5598, 5356, 5357, 5368, 5367
4641, 5589, 5590, 5601, 5600, 5358, 5359, 5370, 5369
4642, 5590, 5591, 5602, 5601, 5359, 5360, 5371, 5370
4643, 5591, 5592, 5603, 5602, 5360, 5361, 5372, 5371
4644, 5592, 5593, 5604, 5603, 5361, 5362, 5373, 5372
4645, 5593, 5594, 5605, 5604, 5362, 5363, 5374, 5373
4646, 5594, 5595, 5606, 5605, 5363, 5364, 5375, 5374
4647, 5595, 5596, 5607, 5606, 5364, 5365, 5376, 5375
4648, 5596, 5597, 5608, 5607, 5365, 5366, 5377, 5376
4649, 5597, 5598, 5609, 5608, 5366, 5367, 5378, 5377
4650, 5598, 5599, 5610, 5609, 5367, 5368, 5379, 5378
4651, 5600, 5601, 5612, 5611, 5369, 5370, 5381, 5380
4652, 5601, 5602, 5613, 5612, 5370, 5371, 5382, 5381
4653, 5602, 5603, 5614, 5613, 5371, 5372, 5383, 5382
4654, 5603, 5604, 5615, 5614, 5372, 5373, 5384, 5383
4655, 5604, 5605, 5616, 5615, 5373, 5374, 5385, 5384
4656, 5605, 5606, 5617, 5616, 5374, 5375, 5386, 5385
4657, 5606, 5607, 5618, 5617, 5375, 5376, 5387, 5386
4658, 5607, 5608, 5619, 5618, 5376, 5377, 5388, 5387
4659, 5608, 5609, 5620, 5619, 5377, 5378, 5389, 5388
4660, 5609, 5610, 5621, 5620, 5378, 5379, 5390, 5389
4661, 5611, 5612, 5623, 5622, 5380, 5381, 5392, 5391
4662, 5612, 5613, 5624, 5623, 5381, 5382, 5393, 5392
4663, 5613, 5614, 5625, 5624, 5382, 5383, 5394, 5393
4664, 5614, 5615, 5626, 5625, 5383, 5384, 5395, 5394
4665, 5615, 5616, 5627, 5626, 5384, 5385, 5396, 5395
4666, 5616, 5617, 5628, 5627, 5385, 5386, 5397, 5396
4667, 5617, 5618, 5629, 5628, 5386, 5387, 5398, 5397
4668, 5618, 5619, 5630, 5629, 5387, 5388, 5399, 5398
4669, 5619, 5620, 5631, 5630, 5388, 5389, 5400, 5399
4670, 5620, 5621, 5632, 5631, 5389, 5390, 5401, 5400
4671, 5622, 5623, 5634, 5633, 5391, 5392, 5403, 5402
4672, 5623, 5624, 5635, 5634, 5392, 5393, 5404, 5403
4673, 5624, 5625, 5636, 5635, 5393, 5394, 5405, 5404
4674, 5625, 5626, 5637, 5636, 5394, 5395, 5406, 5405
4675, 5626, 5627, 5638, 5637, 5395, 5396, 5407, 5406
4676, 5627, 5628, 5639, 5638, 5396, 5397, 5408, 5407
4677, 5628, 5629, 5640, 5639, 5397, 5398, 5409, 5408
4678, 5629, 5630, 5641, 5640, 5398, 5399, 5410, 5409
4679, 5630, 5631, 5642, 5641, 5399, 5400, 5411, 5410
4680, 5631, 5632, 5643, 5642, 5400, 5401, 5412, 5411
4681, 5633, 5634, 5645, 5644, 5402, 5403, 5414, 5413
4682, 5634, 5635, 5646, 5645, 5403, 5404, 5415, 5414
4683, 5635, 5636, 5647, 5646, 5404, 5405, 5416, 5415
4684, 5636, 5637, 5648, 5647, 5405, 5406, 5417, 5416
4685, 5637, 5638, 5649, 5648, 5406, 5407, 5418, 5417
4686, 5638, 5639, 5650, 5649, 5407, 5408, 5419, 5418
4687, 5639, 5640, 5651, 5650, 5408, 5409, 5420, 5419
4688, 5640, 5641, 5652, 5651, 5409, 5410, 5421, 5420
4689, 5641, 5642, 5653, 5652, 5410, 5411, 5422, 5421
4690, 5642, 5643, 5654, 5653, 5411, 5412, 5423, 5422
4691, 5644, 5645, 5656, 5655, 5413, 5414, 5425, 5424
4692, 5645, 5646, 5657, 5656, 5414, 5415, 5426, 5425
4693, 5646, 5647, 5658, 5657, 5415, 5416, 5427, 5426
4694, 5647, 5648, 5659, 5658, 5416, 5417, 5428, 5427
4695, 5648, 5649, 5660, 5659, 5417, 5418, 5429, 5428
4696, 5649, 5650, 5661, 5660, 5418, 5419, 5430, 5429
4697, 5650, 5651, 5662, 5661, 5419, 5420, 5431, 5430
4698, 5651, 5652, 5663, 5662, 5420, 5421, 5432, 5431
4699, 5652, 5653, 5664, 5663, 5421, 5422, 5433, 5432
4700, 5653, 5654, 5665, 5664, 5422, 5423, 5434, 5433
4701, 5655, 5656, 5667, 5666, 5424, 5425, 5436, 5435
4702, 5656, 5657, 5668, 5667, 5425, 5426, 5437, 5436
4703, 5657, 5658, 5669, 5668, 5426, 5427, 5438, 5437
4704, 5658, 5659, 5670, 5669, 5427, 5428, 5439, 5438
4705, 5659, 5660, 5671, 5670, 5428, 5429, 5440, 5439
4706, 5660, 5661, 5672, 5671, 5429, 5430, 5441, 5440
4707, 5661, 5662, 5673, 5672, 5430, 5431, 5442, 5441
4708, 5662, 5663, 5674, 5673, 5431, 5432, 5443, 5442
4709, 5663, 5664, 5675, 5674, 5432, 5433, 5444, 5443
4710, 5664, 5665, 5676, 5675, 5433, 5434, 5445, 5444
4711, 5666, 5667, 5678, 5677, 5435, 5436, 5447, 5446
4712, 5667, 5668, 5679, 5678, 5436, 5437, 5448, 5447
4713, 5668, 5669, 5680, 5679, 5437, 5438, 5449, 5448
4714, 5669, 5670, 5681, 5680, 5438, 5439, 5450, 5449
4715, 5670, 5671, 5682, 5681, 5439, 5440, 5451, 5450
4716, 5671, 5672, 5683, 5682, 5440, 5441, 5452, 5451
4717, 5672, 5673, 5684, 5683, 5441, 5442, 5453, 5452
4718, 5673, 5674, 5685, 5684, 5442, 5443, 5454, 5453
4719, 5674, 5675, 5686, 5685, 5443, 5444, 5455, 5454
4720, 5675, 5676, 5687, 5686, 5444, 5445, 5456, 5455
4721, 5677, 5678, 5689, 5688, 5446, 5447, 5458, 5457
4722, 5678, 5679, 5690, 5689, 5447, 5448, 5459, 5458
4723, 5679, 5680, 5691, 5690, 5448, 5449, 5460, 5459
4724, 5680, 5681, 5692, 5691, 5449, 5450, 5461, 5460
4725, 5681, 5682, 5693, 5692, 5450, 5451, 5462, 5461
4726, 5682, 5683, 5694, 5693, 5451, 5452, 5463, 5462
4727, 5683, 5684, 5695, 5694, 5452, 5453, 5464, 5463
4728, 5684, 5685, 5696, 5695, 5453, 5454, 5465, 5464
4729, 5685, 5686, 5697, 5696, 5454, 5455, 5466, 5465
4730, 5686, 5687, 5698, 5697, 5455, 5456, 5467, 5466
4731, 5688, 5689, 5700, 5699, 5457, 5458, 5469, 5468
4732, 5689, 5690, 5701, 5700, 5458, 5459, 5470, 5469
4733, 5690, 5691, 5702, 5701, 5459, 5460, 5471, 5470
4734, 5691, 5692, 5703, 5702, 5460, 5461, 5472, 5471
4735, 5692, 5693, 5704, 5703, 5461, 5462, 5473, 5472
4736, 5693, 5694, 5705, 5704, 5462, 5463, 5474, 5473
4737, 5694, 5695, 5706, 5705, 5463, 5464, 5475, 5474
4738, 5695, 5696, 5707, 5706, 5464, 5465, 5476, 5475
4739, 5696, 5697, 5708, 5707, 5465, 5466, 5477, 5476
4740, 5697, 5698, 5709, 5708, 5466, 5467, 5478, 5477
4741, 5699, 5700, 5711, 5710, 5468, 5469, 5480, 5479
4742, 5700, 5701, 5712, 5711, 5469, 5470, 5481, 5480
4743, 5701, 5702, 5713, 5712, 5470, 5471, 5482, 5481
4744, 5702, 5703, 5714, 5713, 5471, 5472, 5483, 5482
4745, 5703, 5704, 5715, 5714, 5472, 5473, 5484, 5483
4746, 5704, 5705, 5716, 5715, 5473, 5474, 5485, 5484
4747, 5705, 5706, 5717, 5716, 5474, 5475, 5486, 5485
4748, 5706, 5707, 5718, 5717, 5475, 5476, 5487, 5486
4749, 5707, 5708, 5719, 5718, 5476, 5477, 5488, 5487
4750, 5708, 5709, 5720, 5719, 5477, 5478, 5489, 5488
4751, 5710, 5711, 5722, 5721, 5479, 5480, 5491, 5490
4752, 5711, 5712, 5723, 5722, 5480, 5481, 5492, 5491
4753, 5712, 5713, 5724, 5723, 5481, 5482, 5493, 5492
4754, 5713, 5714, 5725, 5724, 5482, 5483, 5494, 5493
4755, 5714, 5715, 5726, 5725, 5483, 5484, 5495, 5494
4756, 5715, 5716, 5727, 5726, 5484, 5485, 5496, 5495
4757, 5716, 5717, 5728, 5727, 5485, 5486, 5497, 5496
4758, 5717, 5718, 5729, 5728, 5486, 5487, 5498, 5497
4759, 5718, 5719, 5730, 5729, 5487, 5488, 5499, 5498
4760, 5719, 5720, 5731, 5730, 5488, 5489, 5500, 5499
4761, 5721, 5722, 5733, 5732, 5490, 5491, 5502, 5501
4762, 5722, 5723, 5734, 5733, 5491, 5492, 5503, 5502
4763, 5723, 5724, 5735, 5734, 5492, 5493, 5504, 5503
4764, 5724, 5725, 5736, 5735, 5493, 5494, 5505, 5504
4765, 5725, 5726, 5737, 5736, 5494, 5495, 5506, 5505
4766, 5726, 5727, 5738, 5737, 5495, 5496, 5507, 5506
4767, 5727, 5728, 5739, 5738, 5496, 5497, 5508, 5507
4768, 5728, 5729, 5740, 5739, 5497, 5498, 5509, 5508
4769, 5729, 5730, 5741, 5740, 5498, 5499, 5510, 5509
4770, 5730, 5731, 5742, 5741, 5499, 5500, 5511, 5510
4771, 5732, 5733, 5744, 5743, 5501, 5502, 5513, 5512
4772, 5733, 5734, 5745, 5744, 5502, 5503, 5514, 5513
4773, 5734, 5735, 5746, 5745, 5503, 5504, 5515, 5514
4774, 5735, 5736, 5747, 5746, 5504, 5505, 5516, 5515
4775, 5736, 5737, 5748, 5747, 5505, 5506, 5517, 5516
4776, 5737, 5738, 5749, 5748, 5506, 5507, 5518, 5517
4777, 5738, 5739, 5750, 5749, 5507, 5508, 5519, 5518
4778, 5739, 5740, 5751, 5750, 5508, 5509, 5520, 5519
4779, 5740, 5741, 5752, 5751, 5509, 5510, 5521, 5520
4780, 5741, 5742, 5753, 5752, 5510, 5511, 5522, 5521
4781, 5743, 5744, 5755, 5754, 5512, 5513, 5524, 5523
4782, 5744, 5745, 5756, 5755, 5513, 5514, 5525, 5524
4783, 5745, 5746, 5757, 5756, 5514, 5515, 5526, 5525
4784, 5746, 5747, 5758, 5757, 5515, 5516, 5527, 5526
4785, 5747, 5748, 5759, 5758, 5516, 5517, 5528, 5527
4786, 5748, 5749, 5760, 5759, 5517, 5518, 5529, 5528
4787, 5749, 5750, 5761, 5760, 5518, 5519, 5530, 5529
4788, 5750, 5751, 5762, 5761, 5519, 5520, 5531, 5530
4789, 5751, 5752, 5763, 5762, 5520, 5521, 5532, 5531
4790, 5752, 5753, 5764, 5763, 5521, 5522, 5533, 5532
4791, 5754, 5755, 5766, 5765, 5523, 5524, 5535, 5534
4792, 5755, 5756, 5767, 5766, 5524, 5525, 5536, 5535
4793, 5756, 5757, 5768, 5767, 5525, 5526, 5537, 5536
4794, 5757, 5758, 5769, 5768, 5526, 5527, 5538, 5537
4795, 5758, 5759, 5770, 5769, 5527, 5528, 5539, 5538
4796, 5759, 5760, 5771, 5770, 5528, 5529, 5540, 5539
4797, 5760, 5761, 5772, 5771, 5529, 5530, 5541, 5540
4798, 5761, 5762, 5773, 5772, 5530, 5531, 5542, 5541
4799, 5762, 5763, 5774, 5773, 5531, 5532, 5543, 5542
4800, 5763, 5764, 5775, 5774, 5532, 5533, 5544, 5543
4801, 5776, 5777, 5788, 5787, 5545, 5546, 5557, 5556
4802, 5777, 5778, 5789, 5788, 5546, 5547, 5558, 5557
4803, 5778, 5779, 5790, 5789, 5547, 5548, 5559, 5558
4804, 5779, 5780, 5791, 5790, 5548, 5549, 5560, 5559
4805, 5780, 5781, 5792, 5791, 5549, 5550, 5561, 5560
4806, 5781, 5782, 5793, 5792, 5550, 5551, 5562, 5561
4807, 5782, 5783, 5794, 5793, 5551, 5552, 5563, 5562
4808, 5783, 5784, 5795, 5794, 5552, 5553, 5564, 5563
4809, 5784, 5785, 5796, 5795, 5553, 5554, 5565, 5564
4810, 5785, 5786, 5797, 5796, 5554, 5555, 5566, 5565
4811, 5787, 5788, 5799, 5798, 5556, 5557, 5568, 5567
4812, 5788, 5789, 5800, 5799, 5557, 5558, 5569, 5568
4813, 5789, 5790, 5801, 5800, 5558, 5559, 5570, 5569
4814, 5790, 5791, 5802, 5801, 5559, 5560, 5571, 5570
4815, 5791, 5792, 5803, 5802, 5560, 5561, 5572, 5571
4816, 5792, 5793, 5804, 5803, 5561, 5562, 5573, 5572
4817, 5793, 5794, 5805, 5804, 5562, 5563, 5574, 5573
4818, 5794, 5795, 5806, 5805, 5563, 5564, 5575, 5574
4819, 5795, 5796, 5807, 5806, 5564, 5565, 5576, 5575
4820, 5796, 5797, 5808, 5807, 5565, 5566, 5577, 5576
4821, 5798, 5799, 5810, 5809, 5567, 5568, 5579, 5578
4822, 5799, 5800, 5811, 5810, 5568, 5569, 5580, 5579
4823, 5800, 5801, 5812, 5811, 5569, 5570, 5581, 5580
4824, 5801, 5802, 5813, 5812, 5570, 5571, 5582, 5581
4825, 5802, 5803, 5814, 5813, 5571, 5572, 5583, 5582
4826, 5803, 5804, 5815, 5814, 5572, 5573, 5584, 5583
4827, 5804, 5805, 5816, 5815, 5573, 5574, 5585, 5584
4828, 5805, 5806, 5817, 5816, 5574, 5575, 5586, 5585
4829, 5806, 5807, 5818, 5817, 5575, 5576, 5587, 5586
4830, 5807, 5808, 5819, 5818, 5576, 5577, 5588, 5587
4831, 5809, 5810, 5821, 5820, 5578, 5579, 5590, 5589
4832, 5810, 5811, 5822, 5821, 5579, 5580, 5591, 5590
4833, 5811, 5812, 5823, 5822, 5580, 5581, 5592, 5591
4834, 5812, 5813, 5824, 5823, 5581, 5582, 5593, 5592
4835, 5813, 5814, 5825, 5824, 5582, 5583, 5594, 5593
4836, 5814, 5815, 5826, 5825, 5583, 5584, 5595, 5594
4837, 5815, 5816, 5827, 5826, 5584, 5585, 5596, 5595
4838, 5816, 5817, 5828, 5827, 5585, 5586, 5597, 5596
4839, 5817, 5818, 5829, 5828, 5586, 5587, 5598, 5597
4840, 5818, 5819, 5830, 5829, 5587, 5588, 5599, 5598
4841, 5820, 5821, 5832, 5831, 5589, 5590, 5601, 5600
4842, 5821, 5822, 5833, 5832, 5590, 5591, 5602, 5601
4843, 5822, 5823, 5834, 5833, 5591, 5592, 5603, 5602
4844, 5823, 5824, 5835, 5834, 5592, 5593, 5604, 5603
4845, 5824, 5825, 5836, 5835, 5593, 5594, 5605, 5604
4846, 5825, 5826, 5837, 5836, 5594, 5595, 5606, 5605
4847, 5826, 5827, 5838, 5837, 5595, 5596, 5607, 5606
4848, 5827, 5828, 5839, 5838, 5596, 5597, 5608, 5607
4849, 5828, 5829, 5840, 5839, 5597, 5598, 5609, 5608
4850, 5829, 5830, 5841, 5840, 5598, 5599, 5610, 5609
4851, 5831, 5832, 5843, 5842, 5600, 5601, 5612, 5611
4852, 5832, 5833, 5844, 5843, 5601, 5602, 5613, 5612
4853, 5833, 5834, 5845, 5844, 5602, 5603, 5614, 5613
4854, 5834, 5835, 5846, 5845, 5603, 5604, 5615, 5614
4855, 5835, 5836, 5847, 5846, 5604, 5605, 5616, 5615
4856, 5836, 5837, 5848, 5847, 5605, 5606, 5617, 5616
4857, 5837, 5838, 5849, 5848, 5606, 5607, 5618, 5617
4858, 5838, 5839, 5850, 5849, 5607, 5608, 5619, 5618
4859, 5839, 5840, 5851, 5850, 5608, 5609, 5620, 5619
4860, 5840, 5841, 5852, 5851, 5609, 5610, 5621, 5620
4861, 5842, 5843, 5854, 5853, 5611, 5612, 5623, 5622
4862, 5843, 5844, 5855, 5854, 5612, 5613, 5624, 5623
4863, 5844, 5845, 5856, 5855, 5613, 5614, 5625, 5624
4864, 5845, 5846, 5857, 5856, 5614, 5615, 5626, 5625
4865, 5846, 5847, 5858, 5857, 5615, 5616, 5627, 5626
4866, 5847, 5848, 5859, 5858, 5616, 5617, 5628, 5627
4867, 5848, 5849, 5860, 5859, 5617, 5618, 5629, 5628
4868, 5849, 5850, 5861, 5860, 5618, 5619, 5630, 5629
4869, 5850, 5851, 5862, 5861, 5619, 5620, 5631, 5630
4870, 5851, 5852, 5863, 5862, 5620, 5621, 5632, 5631
4871, 5853, 5854, 5865, 5864, 5622, 5623, 5634, 5633
4872, 5854, 5855, 5866, 5865, 5623, 5624, 5635, 5634
4873, 5855, 5856, 5867, 5866, 5624, 5625, 5636, 5635
4874, 5856, 5857, 5868, 5867, 5625, 5626, 5637, 5636
4875, 5857, 5858, 5869, 5868, 5626, 5627, 5638, 5637
4876, 5858, 5859, 5870, 5869, 5627, 5628, 5639, 5638
4877, 5859, 5860, 5871, 5870, 5628, 5629, 5640, 5639
4878, 5860, 5861, 5872, 5871, 5629, 5630, 5641, 5640
4879, 5861, 5862, 5873, 5872, 5630, 5631, 5642, 5641
4880, 5862, 5863, 5874, 5873, 5631, 5632, 5643, 5642
4881, 5864, 5865, 5876, 5875, 5633, 5634, 5645, 5644
4882, 5865, 5866, 5877, 5876, 5634, 5635, 5646, 5645
4883, 5866, 5867, 5878, 5877, 5635, 5636, 5647, 5646
4884, 5867, 5868, 5879, 5878, 5636, 5637, 5648, 5647
4885, 5868, 5869, 5880, 5879, 5637, 5638, 5649, 5648
4886, 5869, 5870, 5881, 5880, 5638, 5639, 5650, 5649
4887, 5870, 5871, 5882, 5881, 5639, 5640, 5651, 5650
4888, 5871, 5872, 5883, 5882, 5640, 5641, 5652, 5651
4889, 5872, 5873, 5884, 5883, 5641, 5642, 5653, 5652
4890, 5873, 5874, 5885, 5884, 5642, 5643, 5654, 5653
4891, 5875, 5876, 5887, 5886, 5644, 5645, 5656, 5655
4892, 5876, 5877, 5888, 5887, 5645, 5646, 5657, 5656
4893, 5877, 5878, 5889, 5888, 5646, 5647, 5658, 5657
4894, 5878, 5879, 5890, 5889, 5647, 5648, 5659, 5658
4895, 5879, 5880, 5891, 5890, 5648, 5649, 5660, 5659
4896, 5880, 5881, 5892, 5891, 5649, 5650, 5661, 5660
4897, 5881, 5882, 5893, 5892, 5650, 5651, 5662, 5661
4898, 5882, 5883, 5894, 5893, 5651, 5652, 5663, 5662
4899, 5883, 5884, 5895, 5894, 5652, 5653, 5664, 5663
4900, 5884, 5885, 5896, 5895, 5653, 5654, 5665, 5664
4901, 5886, 5887, 5898, 5897, 5655, 5656, 5667, 5666
4902, 5887, 5888, 5899, 5898, 5656, 5657, 5668, 5667
4903, 5888, 5889, 5900, 5899, 5657, 5658, 5669, 5668
4904, 5889, 5890, 5901, 5900, 5658, 5659, 5670, 5669
4905, 5890, 5891, 5902, 5901, 5659, 5660, 5671, 5670
4906, 5891, 5892, 5903, 5902, 5660, 5661, 5672, 5671
4907, 5892, 5893, 5904, 5903, 5661, 5662, 5673, 5672
4908, 5893, 5894, 5905, 5904, 5662, 5663, 5674, 5673
4909, 5894, 5895, 5906, 5905, 5663, 5664, 5675, 5674
4910, 5895, 5896, 5907, 5906, 5664, 5665, 5676, 5675
4911, 5897, 5898, 5909, 5908, 5666, 5667, 5678, 5677
4912, 5898, 5899, 5910, 5909, 5667, 5668, 5679, 5678
4913, 5899, 5900, 5911, 5910, 5668, 5669, 5680, 5679
4914, 5900, 5901, 5912, 5911, 5669, 5670, 5681, 5680
4915, 5901, 5902, 5913, 5912, 5670, 5671, 5682, 5681
4916, 5902, 5903, 5914, 5913, 5671, 5672, 5683, 5682
4917, 5903, 5904, 5915, 5914, 5672, 5673, 5684, 5683
4918, 5904, 5905, 5916, 5915, 5673, 5674, 5685, 5684
4919, 5905, 5906, 5917, 5916, 5674, 5675, 5686, 5685
4920, 5906, 5907, 5918, 5917, 5675, 5676, 5687, 5686
4921, 5908, 5909, 5920, 5919, 5677, 5678, 5689, 5688
4922, 5909, 5910, 5921, 5920, 5678, 5679, 5690, 5689
4923, 5910, 5911, 5922, 5921, 5679, 5680, 5691, 5690
4924, 5911, 5912, 5923, 5922, 5680, 5681, 5692, 5691
4925, 5912, 5913, 5924, 5923, 5681, 5682, 5693, 5692
4926, 5913, 5914, 5925, 5924, 5682, 5683, 5694, 5693
4927, 5914, 5915, 5926, 5925, 5683, 5684, 5695, 5694
4928, 5915, 5916, 5927, 5926, 5684, 5685, 5696, 5695
4929, 5916, 5917, 5928, 5927, 5685, 5686, 5697, 5696
4930, 5917, 5918, 5929, 5928, 5686, 5687, 5698, 5697
4931, 5919, 5920, 5931, 5930, 5688, 5689, 5700, 5699
4932, 5920, 5921, 5932, 5931, 5689, 5690, 5701, 5700
4933, 5921, 5922, 5933, 5932, 5690, 5691, 5702, 5701
4934, 5922, 5923, 5934, 5933, 5691, 5692, 5703, 5702
4935, 5923, 5924, 5935, 5934, 5692, 5693, 5704, 5703
4936, 5924, 5925, 5936, 5935, 5693, 5694, 5705, 5704
4937, 5925, 5926, 5937, 5936, 5694, 5695, 5706, 5705
4938, 5926, 5927, 5938, 5937, 5695, 5696, 5707, 5706
4939, 5927, 5928, 5939, 5938, 5696, 5697, 5708, 5707
4940, 5928, 5929, 5940, 5939, 5697, 5698, 5709, 5708
4941, 5930, 5931, 5942, 5941, 5699, 5700, 5711, 5710
4942, 5931, 5932, 5943, 5942, 5700, 5701, 5712, 5711
4943, 5932, 5933, 5944, 5943, 5701, 5702, 5713, 5712
4944, 5933, 5934, 5945, 5944, 5702, 5703, 5714, 5713
4945, 5934, 5935, 5946, 5945, 5703, 5704, 5715, 5714
4946, 5935, 5936, 5947, 5946, 5704, 5705, 5716, 5715
4947, 5936, 5937, 5948, 5947, 5705, 5706, 5717, 5716
4948, 5937, 5938, 5949, 5948, 5706, 5707, 5718, 5717
4949, 5938, 5939, 5950, 5949, 5707, 5708, 5719, 5718
4950, 5939, 5940, 5951, 5950, 5708, 5709, 5720, 5719
4951, 5941, 5942, 5953, 5952, 5710, 5711, 5722, 5721
4952, 5942, 5943, 5954, 5953, 5711, 5712, 5723, 5722
4953, 5943, 5944, 5955, 5954, 5712, 5713, 5724, 5723
4954, 5944, 5945, 5956, 5955, 5713, 5714, 5725, 5724
4955, 5945, 5946, 5957, 5956, 5714, 5715, 5726, 5725
4956, 5946, 5947, 5958, 5957, 5715, 5716, 5727, 5726
4957, 5947, 5948, 5959, 5958, 5716, 5717, 5728, 5727
4958, 5948, 5949, 5960, 5959, 5717, 5718, 5729, 5728
4959, 5949, 5950, 5961, 5960, 5718, 5719, 5730, 5729
4960, 5950, 5951, 5962, 5961, 5719, 5720, 5731, 5730
4961, 5952, 5953, 5964, 5963, 5721, 5722, 5733, 5732
4962, 5953, 5954, 5965, 5964, 5722, 5723, 5734, 5733
4963, 5954, 5955, 5966, 5965, 5723, 5724, 5735, 5734
4964, 5955, 5956, 5967, 5966, 5724, 5725, 5736, 5735
4965, 5956, 5957, 5968, 5967, 5725, 5726, 5737, 5736
4966, 5957, 5958, 5969, 5968, 5726, 5727, 5738, 5737
4967, 5958, 5959, 5970, 5969, 5727, 5728, 5739, 5738
4968, 5959, 5960, 5971, 5970, 5728, 5729, 5740, 5739
4969, 5960, 5961, 5972, 5971, 5729, 5730, 5741, 5740
4970, 5961, 5962, 5973, 5972, 5730, 5731, 5742, 5741
4971, 5963, 5964, 5975, 5974, 5732, 5733, 5744, 5743
4972, 5964, 5965, 5976, 5975, 5733, 5734, 5745, 5744
4973, 5965, 5966, 5977, 5976, 5734, 5735, 5746, 5745
4974, 5966, 5967, 5978, 5977, 5735, 5736, 5747, 5746
4975, 5967, 5968, 5979, 5978, 5736, 5737, 5748, 5747
4976, 5968, 5969, 5980, 5979, 5737, 5738, 5749, 5748
4977, 5969, 5970, 5981, 5980, 5738, 5739, 5750, 5749
4978, 5970, 5971, 5982, 5981, 5739, 5740, 5751, 5750
4979, 5971, 5972, 5983, 5982, 5740, 5741, 5752, 5751
4980, 5972, 5973, 5984, 5983, 5741, 5742, 5753, 5752
4981, 5974, 5975, 5986, 5985, 5743, 5744, 5755, 5754
4982, 5975, 5976, 5987, 5986, 5744, 5745, 5756, 5755
4983, 5976, 5977, 5988, 5987, 5745, 5746, 5757, 5756
4984, 5977, 5978, 5989, 5988, 5746, 5747, 5758, 5757
4985, 5978, 5979, 5990, 5989, 5747, 5748, 5759, 5758
4986, 5979, 5980, 5991, 5990, 5748, 5749, 5760, 5759
4987, 5980, 5981, 5992, 5991, 5749, 5750, 5761, 5760
4988, 5981, 5982, 5993, 5992, 5750, 5751, 5762, 5761
4989, 5982, 5983, 5994, 5993, 5751, 5752, 5763, 5762
4990, 5983, 5984, 5995, 5994, 5752, 5753, 5764, 5763
4991, 5985, 5986, 5997, 5996, 5754, 5755, 5766, 5765
4992, 5986, 5987, 5998, 5997, 5755, 5756, 5767, 5766
4993, 5987, 5988, 5999, 5998, 5756, 5757, 5768, 5767
4994, 5988, 5989, 6000, 5999, 5757, 5758, 5769, 5768
4995, 5989, 5990, 6001, 6000, 5758, 5759, 5770, 5769
4996, 5990, 5991, 6002, 6001, 5759, 5760, 5771, 5770
4997, 5991, 5992, 6003, 6002, 5760, 5761, 5772, 5771
4998, 5992, 5993, 6004, 6003, 5761, 5762, 5773, 5772
4999, 5993, 5994, 6005, 6004, 5762, 5763, 5774, 5773
5000, 5994, 5995, 6006, 6005, 5763, 5764, 5775, 5774
5001, 6007, 6008, 6019, 6018, 5776, 5777, 5788, 5787
5002, 6008, 6009, 6020, 6019, 5777, 5778, 5789, 5788
5003, 6009, 6010, 6021, 6020, 5778, 5779, 5790, 5789
5004, 6010, 6011, 6022, 6021, 5779, 5780, 5791, 5790
5005, 6011, 6012, 6023, 6022, 5780, 5781, 5792, 5791
5006, 6012, 6013, 6024, 6023, 5781, 5782, 5793, 5792
5007, 6013, 6014, 6025, 6024, 5782, 5783, 5794, 5793
5008, 6014, 6015, 6026, 6025, 5783, 5784, 5795, 5794
5009, 6015, 6016, 6027, 6026, 5784, 5785, 5796, 5795
5010, 6016, 6017, 6028, 6027, 5785, 5786, 5797, 5796
5011, 6018, 6019, 6030, 6029, 5787, 5788, 5799, 5798
5012, 6019, 6020, 6031, 6030, 5788, 5789, 5800, 5799
5013, 6020, 6021, 6032, 6031, 5789, 5790, 5801, 5800
5014, 6021, 6022, 6033, 6032, 5790, 5791, 5802, 5801
5015, 6022, 6023, 6034, 6033, 5791, 5792, 5803, 5802
5016, 6023, 6024, 6035, 6034, 5792, 5793, 5804, 5803
5017, 6024, 6025, 6036, 6035, 5793, 5794, 5805, 5804
5018, 6025, 6026, 6037, 6036, 5794, 5795, 5806, 5805
5019, 6026, 6027, 6038, 6037, 5795, 5796, 5807, 5806
5020, 6027, 6028, 6039, 6038, 5796, 5797, 5808, 5807
5021, 6029, 6030, 6041, 6040, 5798, 5799, 5810, 5809
5022, 6030, 6031, 6042, 6041, 5799, 5800, 5811, 5810
5023, 6031, 6032, 6043, 6042, 5800, 5801, 5812, 5811
5024, 6032, 6033, 6044, 6043, 5801, 5802, 5813, 5812
5025, 6033, 6034, 6045, 6044, 5802, 5803, 5814, 5813
5026, 6034, 6035, 6046, 6045, 5803, 5804, 5815, 5814
5027, 6035, 6036, 6047, 6046, 5804, 5805, 5816, 5815
5028, 6036, 6037, 6048, 6047, 5805, 5806, 5817, 5816
5029, 6037, 6038, 6049, 6048, 5806, 5807, 5818, 5817
5030, 6038, 6039, 6050, 6049, 5807, 5808, 5819, 5818
5031, 6040, 6041, 6052, 6051, 5809, 5810, 5821, 5820
5032, 6041, 6042, 6053, 6052, 5810, 5811, 5822, 5821
5033, 6042, 6043, 6054, 6053, 5811, 5812, 5823, 5822
5034, 6043, 6044, 6055, 6054, 5812, 5813, 5824, 5823
5035, 6044, 6045, 6056, 6055, 5813, 5814, 5825, 5824
5036, 6045, 6046, 6057, 6056, 5814, 5815, 5826, 5825
5037, 6046, 6047, 6058, 6057, 5815, 5816, 5827, 5826
5038, 6047, 6048, 6059, 6058, 5816, 5817, 5828, 5827
5039, 6048, 6049, 6060, 6059, 5817, 5818, 5829, 5828
5040, 6049, 6050, 6061, 6060, 5818, 5819, 5830, 5829
5041, 6051, 6052, 6063, 6062, 5820, 5821, 5832, 5831
5042, 6052, 6053, 6064, 6063, 5821, 5822, 5833, 5832
5043, 6053, 6054, 6065, 6064, 5822, 5823, 5834, 5833
5044, 6054, 6055, 6066, 6065, 5823, 5824, 5835, 5834
5045, 6055, 6056, 6067, 6066, 5824, 5825, 5836, 5835
5046, 6056, 6057, 6068, 6067, 5825, 5826, 5837, 5836
5047, 6057, 6058, 6069, 6068, 5826, 5827, 5838, 5837
5048, 6058, 6059, 6070, 6069, 5827, 5828, 5839, 5838
5049, 6059, 6060, 6071, 6070, 5828, 5829, 5840, 5839
5050, 6060, 6061, 6072, 6071, 5829, 5830, 5841, 5840
5051, 6062, 6063, 6074, 6073, 5831, 5832, 5843, 5842
5052, 6063, 6064, 6075, 6074, 5832, 5833, 5844, 5843
5053, 6064, 6065, 6076, 6075, 5833, 5834, 5845, 5844
5054, 6065, 6066, 6077, 6076, 5834, 5835, 5846, 5845
5055, 6066, 6067, 6078, 6077, 5835, 5836, 5847, 5846
5056, 6067, 6068, 6079, 6078, 5836, 5837, 5848, 5847
5057, 6068, 6069, 6080, 6079, 5837, 5838, 5849, 5848
5058, 6069, 6070, 6081, 6080, 5838, 5839, 5850, 5849
5059, 6070, 6071, 6082, 6081, 5839, 5840, 5851, 5850
5060, 6071, 6072, 6083, 6082, 5840, 5841, 5852, 5851
5061, 6073, 6074, 6085, 6084, 5842, 5843, 5854, 5853
5062, 6074, 6075, 6086, 6085, 5843, 5844, 5855, 5854
5063, 6075, 6076, 6087, 6086, 5844, 5845, 5856, 5855
5064, 6076, 6077, 6088, 6087, 5845, 5846, 5857, 5856
5065, 6077, 6078, 6089, 6088, 5846, 5847, 5858, 5857
5066, 6078, 6079, 6090, 6089, 5847, 5848, 5859, 5858
5067, 6079, 6080, 6091, 6090, 5848, 5849, 5860, 5859
5068, 6080, 6081, 6092, 6091, 5849, 5850, 5861, 5860
5069, 6081, 6082, 6093, 6092, 5850, 5851, 5862, 5861
5070, 6082, 6083, 6094, 6093, 5851, 5852, 5863, 5862
5071, 6084, 6085, 6096, 6095, 5853, 5854, 5865, 5864
5072, 6085, 6086, 6097, 6096, 5854, 5855, 5866, 5865
5073, 6086, 6087, 6098, 6097, 5855, 5856, 5867, 5866
5074, 6087, 6088, 6099, 6098, 5856, 5857, 5868, 5867
5075, 6088, 6089, 6100, 6099, 5857, 5858, 5869, 5868
5076, 6089, 6090, 6101, 6100, 5858, 5859, 5870, 5869
5077, 6090, 6091, 6102, 6101, 5859, 5860, 5871, 5870
5078, 6091, 6092, 6103, 6102, 5860, 5861, 5872, 5871
5079, 6092, 6093, 6104, 6103, 5861, 5862, 5873, 5872
5080, 6093, 6094, 6105, 6104, 5862, 5863, 5874, 5873
5081, 6095, 6096, 6107, 6106, 5864, 5865, 5876, 5875
5082, 6096, 6097, 6108, 6107, 5865, 5866, 5877, 5876
5083, 6097, 6098, 6109, 6108, 5866, 5867, 5878, 5877
5084, 6098, 6099, 6110, 6109, 5867, 5868, 5879, 5878
5085, 6099, 6100, 6111, 6110, 5868, 5869, 5880, 5879
5086, 6100, 6101, 6112, 6111, 5869, 5870, 5881, 5880
5087, 6101, 6102, 6113, 6112, 5870, 5871, 5882, 5881
5088, 6102, 6103, 6114, 6113, 5871, 5872, 5883, 5882
5089, 6103, 6104, 6115, 6114, 5872, 5873, 5884, 5883
5090, 6104, 6105, 6116, 6115, 5873, 5874, 5885, 5884
5091, 6106, 6107, 6118, 6117, 5875, 5876, 5887, 5886
5092, 6107, 6108, 6119, 6118, 5876, 5877, 5888, 5887
5093, 6108, 6109, 6120, 6119, 5877, 5878, 5889, 5888
5094, 6109, 6110, 6121, 6120, 5878, 5879, 5890, 5889
5095, 6110, 6111, 6122, 6121, 5879, 5880, 5891, 5890
5096, 6111, 6112, 6123, 6122, 5880, 5881, 5892, 5891
5097, 6112, 6113, 6124, 6123, 5881, 5882, 5893, 5892
5098, 6113, 6114, 6125, 6124, 5882, 5883, 5894, 5893
5099, 6114, 6115, 6126, 6125, 5883, 5884, 5895, 5894
5100, 6115, 6116, 6127, 6126, 5884, 5885, 5896, 5895
5101, 6117, 6118, 6129, 6128, 5886, 5887, 5898, 5897
5102, 6118, 6119, 6130, 6129, 5887, 5888, 5899, 5898
5103, 6119, 6120, 6131, 6130, 5888, 5889, 5900, 5899
5104, 6120, 6121, 6132, 6131, 5889, 5890, 5901, 5900
5105, 6121, 6122, 6133, 6132, 5890, 5891, 5902, 5901
5106, 6122, 6123, 6134, 6133, 5891, 5892, 5903, 5902
5107, 6123, 6124, 6135, 6134, 5892, 5893, 5904, 5903
5108, 6124, 6125, 6136, 6135, 5893, 5894, 5905, 5904
5109, 6125, 6126, 6137, 6136, 5894, 5895, 5906, 5905
5110, 6126, 6127, 6138, 6137, 5895, 5896, 5907, 5906
5111, 6128, 6129, 6140, 6139, 5897, 5898, 5909, 5908
5112, 6129, 6130, 6141, 6140, 5898, 5899, 5910, 5909
5113, 6130, 6131, 6142, 6141, 5899, 5900, 5911, 5910
5114, 6131, 6132, 6143, 6142, 5900, 5901, 5912, 5911
5115, 6132, 6133, 6144, 6143, 5901, 5902, 5913, 5912
5116, 6133, 6134, 6145, 6144, 5902, 5903, 5914, 5913
5117, 6134, 6135, 6146, 6145, 5903, 5904, 5915, 5914
5118, 6135, 6136, 6147, 6146, 5904, 5905, 5916, 5915
5119, 6136, 6137, 6148, 6147, 5905, 5906, 5917, 5916
5120, 6137, 6138, 6149, 6148, 5906, 5907, 5918, 5917
5121, 6139, 6140, 6151, 6150, 5908, 5909, 5920, 5919
5122, 6140, 6141, 6152, 6151, 5909, 5910, 5921, 5920
5123, 6141, 6142, 6153, 6152, 5910, 5911, 5922, 5921
5124, 6142, 6143, 6154, 6153, 5911, 5912, 5923, 5922
5125, 6143, 6144, 6155, 6154, 5912, 5913, 5924, 5923
5126, 6144, 6145, 6156, 6155, 5913, 5914, 5925, 5924
5127, 6145, 6146, 6157, 6156, 5914, 5915, 5926, 5925
5128, 6146, 6147, 6158, 6157, 5915, 5916, 5927, 5926
5129, 6147, 6148, 6159, 6158, 5916, 5917, 5928, 5927
5130, 6148, 6149, 6160, 6159, 5917, 5918, 5929, 5928
5131, 6150, 6151, 6162, 6161, 5919, 5920, 5931, 5930
5132, 6151, 6152, 6163, 6162, 5920, 5921, 5932, 5931
5133, 6152, 6153, 6164, 6163, 5921, 5922, 5933, 5932
5134, 6153, 6154, 6165, 6164, 5922, 5923, 5934, 5933
5135, 6154, 6155, 6166, 6165, 5923, 5924, 5935, 5934
5136, 6155, 6156, 6167, 6166, 5924, 5925, 5936, 5935
5137, 6156, 6157, 6168, 6167, 5925, 5926, 5937, 5936
5138, 6157, 6158, 6169, 6168, 5926, 5927, 5938, 5937
5139, 6158, 6159, 6170, 6169, 5927, 5928, 5939, 5938
5140, 6159, 6160, 6171, 6170, 5928, 5929, 5940, 5939
5141, 6161, 6162, 6173, 6172, 5930, 5931, 5942, 5941
5142, 6162, 6163, 6174, 6173, 5931, 5932, 5943, 5942
5143, 6163, 6164, 6175, 6174, 5932, 5933, 5944, 5943
5144, 6164, 6165, 6176, 6175, 5933, 5934, 5945, 5944
5145, 6165, 6166, 6177, 6176, 5934, 5935, 5946, 5945
5146, 6166, 6167, 6178, 6177, 5935, 5936, 5947, 5946
5147, 6167, 6168, 6179, 6178, 5936, 5937, 5948, 5947
5148, 6168, 6169, 6180, 6179, 5937, 5938, 5949, 5948
5149, 6169, 6170, 6181, 6180, 5938, 5939, 5950, 5949
5150, 6170, 6171, 6182, 6181, 5939, 5940, 5951, 5950
5151, 6172, 6173, 6184, 6183, 5941, 5942, 5953, 5952
5152, 6173, 6174, 6185, 6184, 5942, 5943, 5954, 5953
5153, 6174, 6175, 6186, 6185, 5943, 5944, 5955, 5954
5154, 6175, 6176, 6187, 6186, 5944, 5945, 5956, 5955
5155, 6176, 6177, 6188, 6187, 5945, 5946, 5957, 5956
5156, 6177, 6178, 6189, 6188, 5946, 5947, 5958, 5957
5157, 6178, 6179, 6190, 6189, 5947, 5948, 5959, 5958
5158, 6179, 6180, 6191, 6190, 5948, 5949, 5960, 5959
5159, 6180, 6181, 6192, 6191, 5949, 5950, 5961, 5960
5160, 6181, 6182, 6193, 6192, 5950, 5951, 5962, 5961
5161, 6183, 6184, 6195, 6194, 5952, 5953, 5964, 5963
5162, 6184, 6185, 6196, 6195, 5953, 5954, 5965, 5964
5163, 6185, 6186, 6197, 6196, 5954, 5955, 5966, 5965
5164, 6186, 6187, 6198, 6197, 5955, 5956, 5967, 5966
5165, 6187, 6188, 6199, 6198, 5956, 5957, 5968, 5967
5166, 6188, 6189, 6200, 6199, 5957, 5958, 5969, 5968
5167, 6189, 6190, 6201, 6200, 5958, 5959, 5970, 5969
5168, 6190, 6191, 6202, 6201, 5959, 5960, 5971, 5970
5169, 6191, 6192, 6203, 6202, 5960, 5961, 5972, 5971
5170, 6192, 6193, 6204, 6203, 5961, 5962, 5973, 5972
5171, 6194, 6195, 6206, 6205, 5963, 5964, 5975, 5974
5172, 6195, 6196, 6207, 6206, 5964, 5965, 5976, 5975
5173, 6196, 6197, 6208, 6207, 5965, 5966, 5977, 5976
5174, 6197, 6198, 6209, 6208, 5966, 5967, 5978, 5977
5175, 6198, 6199, 6210, 6209, 5967, 5968, 5979, 5978
5176, 6199, 6200, 6211, 6210, 5968, 5969, 5980, 5979
5177, 6200, 6201, 6212, 6211, 5969, 5970, 5981, 5980
5178, 6201, 6202, 6213, 6212, 5970, 5971, 5982, 5981
5179, 6202, 6203, 6214, 6213, 5971, 5972, 5983, 5982
5180, 6203, 6204, 6215, 6214, 5972, 5973, 5984, 5983
5181, 6205, 6206, 6217, 6216, 5974, 5975, 5986, 5985
5182, 6206, 6207, 6218, 6217, 5975, 5976, 5987, 5986
5183, 6207, 6208, 6219, 6218, 5976, 5977, 5988, 5987
5184, 6208, 6209, 6220, 6219, 5977, 5978, 5989, 5988
5185, 6209, 6210, 6221, 6220, 5978, 5979, 5990, 5989
5186, 6210, 6211, 6222, 6221, 5979, 5980, 5991, 5990
5187, 6211, 6212, 6223, 6222, 5980, 5981, 5992, 5991
5188, 6212, 6213, 6224, 6223, 5981, 5982, 5993, 5992
5189, 6213, 6214, 6225, 6224, 5982, 5983, 5994, 5993
5190, 6214, 6215, 6226, 6225, 5983, 5984, 5995, 5994
5191, 6216, 6217, 6228, 6227, 5985, 5986, 5997, 5996
5192, 6217, 6218, 6229, 6228, 5986, 5987, 5998, 5997
5193, 6218, 6219, 6230, 6229, 5987, 5988, 5999, 5998
5194, 6219, 6220, 6231, 6230, 5988, 5989, 6000, 5999
5195, 6220, 6221, 6232, 6231, 5989, 5990, 6001, 6000
5196, 6221, 6222, 6233, 6232, 5990, 5991, 6002, 6001
5197, 6222, 6223, 6234, 6233, 5991, 5992, 6003, 6002
5198, 6223, 6224, 6235, 6234, 5992, 5993, 6004, 6003
5199, 6224, 6225, 6236, 6235, 5993, 5994, 6005, 6004
5200, 6225, 6226, 6237, 6236, 5994, 5995, 6006, 6005
5201, 6238, 6239, 6250, 6249, 6007, 6008, 6019, 6018
5202, 6239, 6240, 6251, 6250, 6008, 6009, 6020, 6019
5203, 6240, 6241, 6252, 6251, 6009, 6010, 6021, 6020
5204, 6241, 6242, 6253, 6252, 6010, 6011, 6022, 6021
5205, 6242, 6243, 6254, 6253, 6011, 6012, 6023, 6022
5206, 6243, 6244, 6255, 6254, 6012, 6013, 6024, 6023
5207, 6244, 6245, 6256, 6255, 6013, 6014, 6025, 6024
5208, 6245, 6246, 6257, 6256, 6014, 6015, 6026, 6025
5209, 6246, 6247, 6258, 6257, 6015, 6016, 6027, 6026
5210, 6247, 6248, 6259, 6258, 6016, 6017, 6028, 6027
5211, 6249, 6250, 6261, 6260, 6018, 6019, 6030, 6029
5212, 6250, 6251, 6262, 6261, 6019, 6020, 6031, 6030
5213, 6251, 6252, 6263, 6262, 6020, 6021, 6032, 6031
5214, 6252, 6253, 6264, 6263, 6021, 6022, 6033, 6032
5215, 6253, 6254, 6265, 6264, 6022, 6023, 6034, 6033
5216, 6254, 6255, 6266, 6265, 6023, 6024, 6035, 6034
5217, 6255, 6256, 6267, 6266, 6024, 6025, 6036, 6035
5218, 6256, 6257, 6268, 6267, 6025, 6026, 6037, 6036
5219, 6257, 6258, 6269, 6268, 6026, 6027, 6038, 6037
5220, 6258, 6259, 6270, 6269, 6027, 6028, 6039, 6038
5221, 6260, 6261, 6272, 6271, 6029, 6030, 6041, 6040
5222, 6261, 6262, 6273, 6272, 6030, 6031, 6042, 6041
5223, 6262, 6263, 6274, 6273, 6031, 6032, 6043, 6042
5224, 6263, 6264, 6275, 6274, 6032, 6033, 6044, 6043
5225, 6264, 6265, 6276, 6275, 6033, 6034, 6045, 6044
5226, 6265, 6266, 6277, 6276, 6034, 6035, 6046, 6045
5227, 6266, 6267, 6278, 6277, 6035, 6036, 6047, 6046
5228, 6267, 6268, 6279, 6278, 6036, 6037, 6048, 6047
5229, 6268, 6269, 6280, 6279, 6037, 6038, 6049, 6048
5230, 6269, 6270, 6281, 6280, 6038, 6039, 6050, 6049
5231, 6271, 6272, 6283, 6282, 6040, 6041, 6052, 6051
5232, 6272, 6273, 6284, 6283, 6041, 6042, 6053, 6052
5233, 6273, 6274, 6285, 6284, 6042, 6043, 6054, 6053
5234, 6274, 6275, 6286, 6285, 6043, 6044, 6055, 6054
5235, 6275, 6276, 6287, 6286, 6044, 6045, 6056, 6055
5236, 6276, 6277, 6288, 6287, 6045, 6046, 6057, 6056
5237, 6277, 6278, 6289, 6288, 6046, 6047, 6058, 6057
5238, 6278, 6279, 6290, 6289, 6047, 6048, 6059, 6058
5239, 6279, 6280, 6291, 6290, 6048, 6049, 6060, 6059
5240, 6280, 6281, 6292, 6291, 6049, 6050, 6061, 6060
5241, 6282, 6283, 6294, 6293, 6051, 6052, 6063, 6062
5242, 6283, 6284, 6295, 6294, 6052, 6053, 6064, 6063
5243, 6284, 6285, 6296, 6295, 6053, 6054, 6065, 6064
5244, 6285, 6286, 6297, 6296, 6054, 6055, 6066, 6065
5245, 6286, 6287, 6298, 6297, 6055, 6056, 6067, 6066
5246, 6287, 6288, 6299, 6298, 6056, 6057, 6068, 6067
5247, 6288, 6289, 6300, 6299, 6057, 6058, 6069, 6068
5248, 6289, 6290, 6301, 6300, 6058, 6059, 6070, 6069
5249, 6290, 6291, 6302, 6301, 6059, 6060, 6071, 6070
5250, 6291, 6292, 6303, 6302, 6060, 6061, 6072, 6071
5251, 6293, 6294, 6305, 6304, 6062, 6063, 6074, 6073
5252, 6294, 6295, 6306, 6305, 6063, 6064, 6075, 6074
5253, 6295, 6296, 6307, 6306, 6064, 6065, 6076, 6075
5254, 6296, 6297, 6308, 6307, 6065, 6066, 6077, 6076
5255, 6297, 6298, 6309, 6308, 6066, 6067, 6078, 6077
5256, 6298, 6299, 6310, 6309, 6067, 6068, 6079, 6078
5257, 6299, 6300, 6311, 6310, 6068, 6069, 6080, 6079
5258, 6300, 6301, 6312, 6311, 6069, 6070, 6081, 6080
5259, 6301, 6302, 6313, 6312, 6070, 6071, 6082, 6081
5260, 6302, 6303, 6314, 6313, 6071, 6072, 6083, 6082
5261, 6304, 6305, 6316, 6315, 6073, 6074, 6085, 6084
5262, 6305, 6306, 6317, 6316, 6074, 6075, 6086, 6085
5263, 6306, 6307, 6318, 6317, 6075, 6076, 6087, 6086
5264, 6307, 6308, 6319, 6318, 6076, 6077, 6088, 6087
5265, 6308, 6309, 6320, 6319, 6077, 6078, 6089, 6088
5266, 6309, 6310, 6321, 6320, 6078, 6079, 6090, 6089
5267, 6310, 6311, 6322, 6321, 6079, 6080, 6091, 6090
5268, 6311, 6312, 6323, 6322, 6080, 6081, 6092, 6091
5269, 6312, 6313, 6324, 6323, 6081, 6082, 6093, 6092
5270, 6313, 6314, 6325, 6324, 6082, 6083, 6094, 6093
5271, 6315, 6316, 6327, 6326, 6084, 6085, 6096, 6095
5272, 6316, 6317, 6328, 6327, 6085, 6086, 6097, 6096
5273, 6317, 6318, 6329, 6328, 6086, 6087, 6098, 6097
5274, 6318, 6319, 6330, 6329, 6087, 6088, 6099, 6098
5275, 6319, 6320, 6331, 6330, 6088, 6089, 6100, 6099
5276, 6320, 6321, 6332, 6331, 6089, 6090, 6101, 6100
5277, 6321, 6322, 6333, 6332, 6090, 6091, 6102, 6101
5278, 6322, 6323, 6334, 6333, 6091, 6092, 6103, 6102
5279, 6323, 6324, 6335, 6334, 6092, 6093, 6104, 6103
5280, 6324, 6325, 6336, 6335, 6093, 6094, 6105, 6104
5281, 6326, 6327, 6338, 6337, 6095, 6096, 6107, 6106
5282, 6327, 6328, 6339, 6338, 6096, 6097, 6108, 6107
5283, 6328, 6329, 6340, 6339, 6097, 6098, 6109, 6108
5284, 6329, 6330, 6341, 6340, 6098, 6099, 6110, 6109
5285, 6330, 6331, 6342, 6341, 6099, 6100, 6111, 6110
5286, 6331, 6332, 6343, 6342, 6100, 6101, 6112, 6111
5287, 6332, 6333, 6344, 6343, 6101, 6102, 6113, 6112
5288, 6333, 6334, 6345, 6344, 6102, 6103, 6114, 6113
5289, 6334, 6335, 6346, 6345, 6103, 6104, 6115, 6114
5290, 6335, 6336, 6347, 6346, 6104, 6105, 6116, 6115
5291, 6337, 6338, 6349, 6348, 6106, 6107, 6118, 6117
5292, 6338, 6339, 6350, 6349, 6107, 6108, 6119, 6118
5293, 6339, 6340, 6351, 6350, 6108, 6109, 6120, 6119
5294, 6340, 6341, 6352, 6351, 6109, 6110, 6121, 6120
5295, 6341, 6342, 6353, 6352, 6110, 6111, 6122, 6121
5296, 6342, 6343, 6354, 6353, 6111, 6112, 6123, 6122
5297, 6343, 6344, 6355, 6354, 6112, 6113, 6124, 6123
5298, 6344, 6345, 6356, 6355, 6113, 6114, 6125, 6124
5299, 6345, 6346, 6357, 6356, 6114, 6115, 6126, 6125
5300, 6346, 6347, 6358, 6357, 6115, 6116, 6127, 6126
5301, 6348, 6349, 6360, 6359, 6117, 6118, 6129, 6128
5302, 6349, 6350, 6361, 6360, 6118, 6119, 6130, 6129
5303, 6350, 6351, 6362, 6361, 6119, 6120, 6131, 6130
5304, 6351, 6352, 6363, 6362, 6120, 6121, 6132, 6131
5305, 6352, 6353, 6364, 6363, 6121, 6122, 6133, 6132
5306, 6353, 6354, 6365, 6364, 6122, 6123, 6134, 6133
5307, 6354, 6355, 6366, 6365, 6123, 6124, 6135, 6134
5308, 6355, 6356, 6367, 6366, 6124, 6125, 6136, 6135
5309, 6356, 6357, 6368, 6367, 6125, 6126, 6137, 6136
5310, 6357, 6358, 6369, 6368, 6126, 6127, 6138, 6137
5311, 6359, 6360, 6371, 6370, 6128, 6129, 6140, 6139
5312, 6360, 6361, 6372, 6371, 6129, 6130, 6141, 6140
5313, 6361, 6362, 6373, 6372, 6130, 6131, 6142, 6141
5314, 6362, 6363, 6374, 6373, 6131, 6132, 6143, 6142
5315, 6363, 6364, 6375, 6374, 6132, 6133, 6144, 6143
5316, 6364, 6365, 6376, 6375, 6133, 6134, 6145, 6144
5317, 6365, 6366, 6377, 6376, 6134, 6135, 6146, 6145
5318, 6366, 6367, 6378, 6377, 6135, 6136, 6147, 6146
5319, 6367, 6368, 6379, 6378, 6136, 6137, 6148, 6147
5320, 6368, 6369, 6380, 6379, 6137, 6138, 6149, 6148
5321, 6370, 6371, 6382, 6381, 6139, 6140, 6151, 6150
5322, 6371, 6372, 6383, 6382, 6140, 6141, 6152, 6151
5323, 6372, 6373, 6384, 6383, 6141, 6142, 6153, 6152
5324, 6373, 6374, 6385, 6384, 6142, 6143, 6154, 6153
5325, 6374, 6375, 6386, 6385, 6143, 6144, 6155, 6154
5326, 6375, 6376, 6387, 6386, 6144, 6145, 6156, 6155
5327, 6376, 6377, 6388, 6387, 6145, 6146, 6157, 6156
5328, 6377, 6378, 6389, 6388, 6146, 6147, 6158, 6157
5329, 6378, 6379, 6390, 6389, 6147, 6148, 6159, 6158
5330, 6379, 6380, 6391, 6390, 6148, 6149, 6160, 6159
5331, 6381, 6382, 6393, 6392, 6150, 6151, 6162, 6161
5332, 6382, 6383, 6394, 6393, 6151, 6152, 6163, 6162
5333, 6383, 6384, 6395, 6394, 6152, 6153, 6164, 6163
5334, 6384, 6385, 6396, 6395, 6153, 6154, 6165, 6164
5335, 6385, 6386, 6397, 6396, 6154, 6155, 6166, 6165
5336, 6386, 6387, 6398, 6397, 6155, 6156, 6167, 6166
5337, 6387, 6388, 6399, 6398, 6156, 6157, 6168, 6167
5338, 6388, 6389, 6400, 6399, 6157, 6158, 6169, 6168
5339, 6389, 6390, 6401, 6400, 6158, 6159, 6170, 6169
5340, 6390, 6391, 6402, 6401, 6159, 6160, 6171, 6170
5341, 6392, 6393, 6404, 6403, 6161, 6162, 6173, 6172
5342, 6393, 6394, 6405, 6404, 6162, 6163, 6174, 6173
5343, 6394, 6395, 6406, 6405, 6163, 6164, 6175, 6174
5344, 6395, 6396, 6407, 6406, 6164, 6165, 6176, 6175
5345, 6396, 6397, 6408, 6407, 6165, 6166, 6177, 6176
5346, 6397, 6398, 6409, 6408, 6166, 6167, 6178, 6177
5347, 6398, 6399, 6410, 6409, 6167, 6168, 6179, 6178
5348, 6399, 6400, 6411, 6410, 6168, 6169, 6180, 6179
5349, 6400, 6401, 6412, 6411, 6169, 6170, 6181, 6180
5350, 6401, 6402, 6413, 6412, 6170, 6171, 6182, 6181
5351, 6403, 6404, 6415, 6414, 6172, 6173, 6184, 6183
5352, 6404, 6405, 6416, 6415, 6173, 6174, 6185, 6184
5353, 6405, 6406, 6417, 6416, 6174, 6175, 6186, 6185
5354, 6406, 6407, 6418, 6417, 6175, 6176, 6187, 6186
5355, 6407, 6408, 6419, 6418, 6176, 6177, 6188, 6187
5356, 6408, 6409, 6420, 6419, 6177, 6178, 6189, 6188
5357, 6409, 6410, 6421, 6420, 6178, 6179, 6190, 6189
5358, 6410, 6411, 6422, 6421, 6179, 6180, 6191, 6190
5359, 6411, 6412, 6423, 6422, 6180, 6181, 6192, 6191
5360, 6412, 6413, 6424, 6423, 6181, 6182, 6193, 6192
5361, 6414, 6415, 6426, 6425, 6183, 6184, 6195, 6194
5362, 6415, 6416, 6427, 6426, 6184, 6185, 6196, 6195
5363, 6416, 6417, 6428, 6427, 6185, 6186, 6197, 6196
5364, 6417, 6418, 6429, 6428, 6186, 6187, 6198, 6197
5365, 6418, 6419, 6430, 6429, 6187, 6188, 6199, 6198
5366, 6419, 6420, 6431, 6430, 6188, 6189, 6200, 6199
5367, 6420, 6421, 6432, 6431, 6189, 6190, 6201, 6200
5368, 6421, 6422, 6433, 6432, 6190, 6191, 6202, 6201
5369, 6422, 6423, 6434, 6433, 6191, 6192, 6203, 6202
5370, 6423, 6424, 6435, 6434, 6192, 6193, 6204, 6203
5371, 6425, 6426, 6437, 6436, 6194, 6195, 6206, 6205
5372, 6426, 6427, 6438, 6437, 6195, 6196, 6207, 6206
5373, 6427, 6428, 6439, 6438, 6196, 6197, 6208, 6207
5374, 6428, 6429, 6440, 6439, 6197, 6198, 6209, 6208
5375, 6429, 6430, 6441, 6440, 6198, 6199, 6210, 6209
5376, 6430, 6431, 6442, 6441, 6199, 6200, 6211, 6210
5377, 6431, 6432, 6443, 6442, 6200, 6201, 6212, 6211
5378, 6432, 6433, 6444, 6443, 6201, 6202, 6213, 6212
5379, 6433, 6434, 6445, 6444, 6202, 6203, 6214, 6213
5380, 6434, 6435, 6446, 6445, 6203, 6204, 6215, 6214
5381, 6436, 6437, 6448, 6447, 6205, 6206, 6217, 6216
5382, 6437, 6438, 6449, 6448, 6206, 6207, 6218, 6217
5383, 6438, 6439, 6450, 6449, 6207, 6208, 6219, 6218
5384, 6439, 6440, 6451, 6450, 6208, 6209, 6220, 6219
5385, 6440, 6441, 6452, 6451, 6209, 6210, 6221, 6220
5386, 6441, 6442, 6453, 6452, 6210, 6211, 6222, 6221
5387, 6442, 6443, 6454, 6453, 6211, 6212, 6223, 6222
5388, 6443, 6444, 6455, 6454, 6212, 6213, 6224, 6223
5389, 6444, 6445, 6456, 6455, 6213, 6214, 6225, 6224
5390, 6445, 6446, 6457, 6456, 6214, 6215, 6226, 6225
5391, 6447, 6448, 6459, 6458, 6216, 6217, 6228, 6227
5392, 6448, 6449, 6460, 6459, 6217, 6218, 6229, 6228
5393, 6449, 6450, 6461, 6460, 6218, 6219, 6230, 6229
5394, 6450, 6451, 6462, 6461, 6219, 6220, 6231, 6230
5395, 6451, 6452, 6463, 6462, 6220, 6221, 6232, 6231
5396, 6452, 6453, 6464, 6463, 6221, 6222, 6233, 6232
5397, 6453, 6454, 6465, 6464, 6222, 6223, 6234, 6233
5398, 6454, 6455, 6466, 6465, 6223, 6224, 6235, 6234
5399, 6455, 6456, 6467, 6466, 6224, 6225, 6236, 6235
5400, 6456, 6457, 6468, 6467, 6225, 6226, 6237, 6236
5401, 6469, 6470, 6481, 6480, 6238, 6239, 6250, 6249
5402, 6470, 6471, 6482, 6481, 6239, 6240, 6251, 6250
5403, 6471, 6472, 6483, 6482, 6240, 6241, 6252, 6251
5404, 6472, 6473, 6484, 6483, 6241, 6242, 6253, 6252
5405, 6473, 6474, 6485, 6484, 6242, 6243, 6254, 6253
5406, 6474, 6475, 6486, 6485, 6243, 6244, 6255, 6254
5407, 6475, 6476, 6487, 6486, 6244, 6245, 6256, 6255
5408, 6476, 6477, 6488, 6487, 6245, 6246, 6257, 6256
5409, 6477, 6478, 6489, 6488, 6246, 6247, 6258, 6257
5410, 6478, 6479, 6490, 6489, 6247, 6248, 6259, 6258
5411, 6480, 6481, 6492, 6491, 6249, 6250, 6261, 6260
5412, 6481, 6482, 6493, 6492, 6250, 6251, 6262, 6261
5413, 6482, 6483, 6494, 6493, 6251, 6252, 6263, 6262
5414, 6483, 6484, 6495, 6494, 6252, 6253, 6264, 6263
5415, 6484, 6485, 6496, 6495, 6253, 6254, 6265, 6264
5416, 6485, 6486, 6497, 6496, 6254, 6255, 6266, 6265
5417, 6486, 6487, 6498, 6497, 6255, 6256, 6267, 6266
5418, 6487, 6488, 6499, 6498, 6256, 6257, 6268, 6267
5419, 6488, 6489, 6500, 6499, 6257, 6258, 6269, 6268
5420, 6489, 6490, 6501, 6500, 6258, 6259, 6270, 6269
5421, 6491, 6492, 6503, 6502, 6260, 6261, 6272, 6271
5422, 6492, 6493, 6504, 6503, 6261, 6262, 6273, 6272
5423, 6493, 6494, 6505, 6504, 6262, 6263, 6274, 6273
5424, 6494, 6495, 6506, 6505, 6263, 6264, 6275, 6274
5425, 6495, 6496, 6507, 6506, 6264, 6265, 6276, 6275
5426, 6496, 6497, 6508, 6507, 6265, 6266, 6277, 6276
5427, 6497, 6498, 6509, 6508, 6266, 6267, 6278, 6277
5428, 6498, 6499, 6510, 6509, 6267, 6268, 6279, 6278
5429, 6499, 6500, 6511, 6510, 6268, 6269, 6280, 6279
5430, 6500, 6501, 6512, 6511, 6269, 6270, 6281, 6280
5431, 6502, 6503, 6514, 6513, 6271, 6272, 6283, 6282
5432, 6503, 6504, 6515, 6514, 6272, 6273, 6284, 6283
5433, 6504, 6505, 6516, 6515, 6273, 6274, 6285, 6284
5434, 6505, 6506, 6517, 6516, 6274, 6275, 6286, 6285
5435, 6506, 6507, 6518, 6517, 6275, 6276, 6287, 6286
5436, 6507, 6508, 6519, 6518, 6276, 6277, 6288, 6287
5437, 6508, 6509, 6520, 6519, 6277, 6278, 6289, 6288
5438, 6509, 6510, 6521, 6520, 6278, 6279, 6290, 6289
5439, 6510, 6511, 6522, 6521, 6279, 6280, 6291, 6290
5440, 6511, 6512, 6523, 6522, 6280, 6281, 6292, 6291
5441, 6513, 6514, 6525, 6524, 6282, 6283, 6294, 6293
5442, 6514, 6515, 6526, 6525, 6283, 6284, 6295, 6294
5443, 6515, 6516, 6527, 6526, 6284, 6285, 6296, 6295
5444, 6516, 6517, 6528, 6527, 6285, 6286, 6297, 6296
5445, 6517, 6518, 6529, 6528, 6286, 6287, 6298, 6297
5446, 6518, 6519, 6530, 6529, 6287, 6288, 6299, 6298
5447, 6519, 6520, 6531, 6530, 6288, 6289, 6300, 6299
5448, 6520, 6521, 6532, 6531, 6289, 6290, 6301, 6300
5449, 6521, 6522, 6533, 6532, 6290, 6291, 6302, 6301
5450, 6522, 6523, 6534, 6533, 6291, 6292, 6303, 6302
5451, 6524, 6525, 6536, 6535, 6293, 6294, 6305, 6304
5452, 6525, 6526, 6537, 6536, 6294, 6295, 6306, 6305
5453, 6526, 6527, 6538, 6537, 6295, 6296, 6307, 6306
5454, 6527, 6528, 6539, 6538, 6296, 6297, 6308, 6307
5455, 6528, 6529, 6540, 6539, 6297, 6298, 6309, 6308
5456, 6529, 6530, 6541, 6540, 6298, 6299, 6310, 6309
5457, 6530, 6531, 6542, 6541, 6299, 6300, 6311, 6310
5458, 6531, 6532, 6543, 6542, 6300, 6301, 6312, 6311
5459, 6532, 6533, 6544, 6543, 6301, 6302, 6313, 6312
5460, 6533, 6534, 6545, 6544, 6302, 6303, 6314, 6313
5461, 6535, 6536, 6547, 6546, 6304, 6305, 6316, 6315
5462, 6536, 6537, 6548, 6547, 6305, 6306, 6317, 6316
5463, 6537, 6538, 6549, 6548, 6306, 6307, 6318, 6317
5464, 6538, 6539, 6550, 6549, 6307, 6308, 6319, 6318
5465, 6539, 6540, 6551, 6550, 6308, 6309, 6320, 6319
5466, 6540, 6541, 6552, 6551, 6309, 6310, 6321, 6320
5467, 6541, 6542, 6553, 6552, 6310, 6311, 6322, 6321
5468, 6542, 6543, 6554, 6553, 6311, 6312, 6323, 6322
5469, 6543, 6544, 6555, 6554, 6312, 6313, 6324, 6323
5470, 6544, 6545, 6556, 6555, 6313, 6314, 6325, 6324
5471, 6546, 6547, 6558, 6557, 6315, 6316, 6327, 6326
5472, 6547, 6548, 6559, 6558, 6316, 6317, 6328, 6327
5473, 6548, 6549, 6560, 6559, 6317, 6318, 6329, 6328
5474, 6549, 6550, 6561, 6560, 6318, 6319, 6330, 6329
5475, 6550, 6551, 6562, 6561, 6319, 6320, 6331, 6330
5476, 6551, 6552, 6563, 6562, 6320, 6321, 6332, 6331
5477, 6552, 6553, 6564, 6563, 6321, 6322, 6333, 6332
5478, 6553, 6554, 6565, 6564, 6322, 6323, 6334, 6333
5479, 6554, 6555, 6566, 6565, 6323, 6324, 6335, 6334
5480, 6555, 6556, 6567, 6566, 6324, 6325, 6336, 6335
5481, 6557, 6558, 6569, 6568, 6326, 6327, 6338, 6337
5482, 6558, 6559, 6570, 6569, 6327, 6328, 6339, 6338
5483, 6559, 6560, 6571, 6570, 6328, 6329, 6340, 6339
5484, 6560, 6561, 6572, 6571, 6329, 6330, 6341, 6340
5485, 6561, 6562, 6573, 6572, 6330, 6331, 6342, 6341
5486, 6562, 6563, 6574, 6573, 6331, 6332, 6343, 6342
5487, 6563, 6564, 6575, 6574, 6332, 6333, 6344, 6343
5488, 6564, 6565, 6576, 6575, 6333, 6334, 6345, 6344
5489, 6565, 6566, 6577, 6576, 6334, 6335, 6346, 6345
5490, 6566, 6567, 6578, 6577, 6335, 6336, 6347, 6346
5491, 6568, 6569, 6580, 6579, 6337, 6338, 6349, 6348
5492, 6569, 6570, 6581, 6580, 6338, 6339, 6350, 6349
5493, 6570, 6571, 6582, 6581, 6339, 6340, 6351, 6350
5494, 6571, 6572, 6583, 6582, 6340, 6341, 6352, 6351
5495, 6572, 6573, 6584, 6583, 6341, 6342, 6353, 6352
5496, 6573, 6574, 6585, 6584, 6342, 6343, 6354, 6353
5497, 6574, 6575, 6586, 6585, 6343, 6344, 6355, 6354
5498, 6575, 6576, 6587, 6586, 6344, 6345, 6356, 6355
5499, 6576, 6577, 6588, 6587, 6345, 6346, 6357, 6356
5500, 6577, 6578, 6589, 6588, 6346, 6347, 6358, 6357
5501, 6579, 6580, 6591, 6590, 6348, 6349, 6360, 6359
5502, 6580, 6581, 6592, 6591, 6349, 6350, 6361, 6360
5503, 6581, 6582, 6593, 6592, 6350, 6351, 6362, 6361
5504, 6582, 6583, 6594, 6593, 6351, 6352, 6363, 6362
5505, 6583, 6584, 6595, 6594, 6352, 6353, 6364, 6363
5506, 6584, 6585, 6596, 6595, 6353, 6354, 6365, 6364
5507, 6585, 6586, 6597, 6596, 6354, 6355, 6366, 6365
5508, 6586, 6587, 6598, 6597, 6355, 6356, 6367, 6366
5509, 6587, 6588, 6599, 6598, 6356, 6357, 6368, 6367
5510, 6588, 6589, 6600, 6599, 6357, 6358, 6369, 6368
5511, 6590, 6591, 6602, 6601, 6359, 6360, 6371, 6370
5512, 6591, 6592, 6603, 6602, 6360, 6361, 6372, 6371
5513, 6592, 6593, 6604, 6603, 6361, 6362, 6373, 6372
5514, 6593, 6594, 6605, 6604, 6362, 6363, 6374, 6373
5515, 6594, 6595, 6606, 6605, 6363, 6364, 6375, 6374
5516, 6595, 6596, 6607, 6606, 6364, 6365, 6376, 6375
5517, 6596, 6597, 6608, 6607, 6365, 6366, 6377, 6376
5518, 6597, 6598, 6609, 6608, 6366, 6367, 6378, 6377
5519, 6598, 6599, 6610, 6609, 6367, 6368, 6379, 6378
5520, 6599, 6600, 6611, 6610, 6368, 6369, 6380, 6379
5521, 6601, 6602, 6613, 6612, 6370, 6371, 6382, 6381
5522, 6602, 6603, 6614, 6613, 6371, 6372, 6383, 6382
5523, 6603, 6604, 6615, 6614, 6372, 6373, 6384, 6383
5524, 6604, 6605, 6616, 6615, 6373, 6374, 6385, 6384
5525, 6605, 6606, 6617, 6616, 6374, 6375, 6386, 6385
5526, 6606, 6607, 6618, 6617, 6375, 6376, 6387, 6386
5527, 6607, 6608, 6619, 6618, 6376, 6377, 6388, 6387
5528, 6608, 6609, 6620, 6619, 6377, 6378, 6389, 6388
5529, 6609, 6610, 6621, 6620, 6378, 6379, 6390, 6389
5530, 6610, 6611, 6622, 6621, 6379, 6380, 6391, 6390
5531, 6612, 6613, 6624, 6623, 6381, 6382, 6393, 6392
5532, 6613, 6614, 6625, 6624, 6382, 6383, 6394, 6393
5533, 6614, 6615, 6626, 6625, 6383, 6384, 6395, 6394
5534, 6615, 6616, 6627, 6626, 6384, 6385, 6396, 6395
5535, 6616, 6617, 6628, 6627, 6385, 6386, 6397, 6396
5536, 6617, 6618, 6629, 6628, 6386, 6387, 6398, 6397
5537, 6618, 6619, 6630, 6629, 6387, 6388, 6399, 6398
5538, 6619, 6620, 6631, 6630, 6388, 6389, 6400, 6399
5539, 6620, 6621, 6632, 6631, 6389, 6390, 6401, 6400
5540, 6621, 6622, 6633, 6632, 6390, 6391, 6402, 6401
5541, 6623, 6624, 6635, 6634, 6392, 6393, 6404, 6403
5542, 6624, 6625, 6636, 6635, 6393, 6394, 6405, 6404
5543, 6625, 6626, 6637, 6636, 6394, 6395, 6406, 6405
5544, 6626, 6627, 6638, 6637, 6395, 6396, 6407, 6406
5545, 6627, 6628, 6639, 6638, 6396, 6397, 6408, 6407
5546, 6628, 6629, 6640, 6639, 6397, 6398, 6409, 6408
5547, 6629, 6630, 6641, 6640, 6398, 6399, 6410, 6409
5548, 6630, 6631, 6642, 6641, 6399, 6400, 6411, 6410
5549, 6631, 6632, 6643, 6642, 6400, 6401, 6412, 6411
5550, 6632, 6633, 6644, 6643, 6401, 6402, 6413, 6412
5551, 6634, 6635, 6646, 6645, 6403, 6404, 6415, 6414
5552, 6635, 6636, 6647, 6646, 6404, 6405, 6416, 6415
5553, 6636, 6637, 6648, 6647, 6405, 6406, 6417, 6416
5554, 6637, 6638, 6649, 6648, 6406, 6407, 6418, 6417
5555, 6638, 6639, 6650, 6649, 6407, 6408, 6419, 6418
5556, 6639, 6640, 6651, 6650, 6408, 6409, 6420, 6419
5557, 6640, 6641, 6652, 6651, 6409, 6410, 6421, 6420
5558, 6641, 6642, 6653, 6652, 6410, 6411, 6422, 6421
5559, 6642, 6643, 6654, 6653, 6411, 6412, 6423, 6422
5560, 6643, 6644, 6655, 6654, 6412, 6413, 6424, 6423
5561, 6645, 6646, 6657, 6656, 6414, 6415, 6426, 6425
5562, 6646, 6647, 6658, 6657, 6415, 6416, 6427, 6426
5563, 6647, 6648, 6659, 6658, 6416, 6417, 6428, 6427
5564, 6648, 6649, 6660, 6659, 6417, 6418, 6429, 6428
5565, 6649, 6650, 6661, 6660, 6418, 6419, 6430, 6429
5566, 6650, 6651, 6662, 6661, 6419, 6420, 6431, 6430
5567, 6651, 6652, 6663, 6662, 6420, 6421, 6432, 6431
5568, 6652, 6653, 6664, 6663, 6421, 6422, 6433, 6432
5569, 6653, 6654, 6665, 6664, 6422, 6423, 6434, 6433
5570, 6654, 6655, 6666, 6665, 6423, 6424, 6435, 6434
5571, 6656, 6657, 6668, 6667, 6425, 6426, 6437, 6436
5572, 6657, 6658, 6669, 6668, 6426, 6427, 6438, 6437
5573, 6658, 6659, 6670, 6669, 6427, 6428, 6439, 6438
5574, 6659, 6660, 6671, 6670, 6428, 6429, 6440, 6439
5575, 6660, 6661, 6672, 6671, 6429, 6430, 6441, 6440
5576, 6661, 6662, 6673, 6672, 6430, 6431, 6442, 6441
5577, 6662, 6663, 6674, 6673, 6431, 6432, 6443, 6442
5578, 6663, 6664, 6675, 6674, 6432, 6433, 6444, 6443
5579, 6664, 6665, 6676, 6675, 6433, 6434, 6445, 6444
5580, 6665, 6666, 6677, 6676, 6434, 6435, 6446, 6445
5581, 6667, 6668, 6679, 6678, 6436, 6437, 6448, 6447
5582, 6668, 6669, 6680, 6679, 6437, 6438, 6449, 6448
5583, 6669, 6670, 6681, 6680, 6438, 6439, 6450, 6449
5584, 6670, 6671, 6682, 6681, 6439, 6440, 6451, 6450
5585, 6671, 6672, 6683, 6682, 6440, 6441, 6452, 6451
5586, 6672, 6673, 6684, 6683, 6441, 6442, 6453, 6452
5587, 6673, 6674, 6685, 6684, 6442, 6443, 6454, 6453
5588, 6674, 6675, 6686, 6685, 6443, 6444, 6455, 6454
5589, 6675, 6676, 6687, 6686, 6444, 6445, 6456, 6455
5590, 6676, 6677, 6688, 6687, 6445, 6446, 6457, 6456
5591, 6678, 6679, 6690, 6689, 6447, 6448, 6459, 6458
5592, 6679, 6680, 6691, 6690, 6448, 6449, 6460, 6459
5593, 6680, 6681, 6692, 6691, 6449, 6450, 6461, 6460
5594, 6681, 6682, 6693, 6692, 6450, 6451, 6462, 6461
5595, 6682, 6683, 6694, 6693, 6451, 6452, 6463, 6462
5596, 6683, 6684, 6695, 6694, 6452, 6453, 6464, 6463
5597, 6684, 6685, 6696, 6695, 6453, 6454, 6465, 6464
5598, 6685, 6686, 6697, 6696, 6454, 6455, 6466, 6465
5599, 6686, 6687, 6698, 6697, 6455, 6456, 6467, 6466
5600, 6687, 6688, 6699, 6698, 6456, 6457, 6468, 6467
5601, 6700, 6701, 6712, 6711, 6469, 6470, 6481, 6480
5602, 6701, 6702, 6713, 6712, 6470, 6471, 6482, 6481
5603, 6702, 6703, 6714, 6713, 6471, 6472, 6483, 6482
5604, 6703, 6704, 6715, 6714, 6472, 6473, 6484, 6483
5605, 6704, 6705, 6716, 6715, 6473, 6474, 6485, 6484
5606, 6705, 6706, 6717, 6716, 6474, 6475, 6486, 6485
5607, 6706, 6707, 6718, 6717, 6475, 6476, 6487, 6486
5608, 6707, 6708, 6719, 6718, 6476, 6477, 6488, 6487
5609, 6708, 6709, 6720, 6719, 6477, 6478, 6489, 6488
5610, 6709, 6710, 6721, 6720, 6478, 6479, 6490, 6489
5611, 6711, 6712, 6723, 6722, 6480, 6481, 6492, 6491
5612, 6712, 6713, 6724, 6723, 6481, 6482, 6493, 6492
5613, 6713, 6714, 6725, 6724, 6482, 6483, 6494, 6493
5614, 6714, 6715, 6726, 6725, 6483, 6484, 6495, 6494
5615, 6715, 6716, 6727, 6726, 6484, 6485, 6496, 6495
5616, 6716, 6717, 6728, 6727, 6485, 6486, 6497, 6496
5617, 6717, 6718, 6729, 6728, 6486, 6487, 6498, 6497
5618, 6718, 6719, 6730, 6729, 6487, 6488, 6499, 6498
5619, 6719, 6720, 6731, 6730, 6488, 6489, 6500, 6499
5620, 6720, 6721, 6732, 6731, 6489, 6490, 6501, 6500
5621, 6722, 6723, 6734, 6733, 6491, 6492, 6503, 6502
5622, 6723, 6724, 6735, 6734, 6492, 6493, 6504, 6503
5623, 6724, 6725, 6736, 6735, 6493, 6494, 6505, 6504
5624, 6725, 6726, 6737, 6736, 6494, 6495, 6506, 6505
5625, 6726, 6727, 6738, 6737, 6495, 6496, 6507, 6506
5626, 6727, 6728, 6739, 6738, 6496, 6497, 6508, 6507
5627, 6728, 6729, 6740, 6739, 6497, 6498, 6509, 6508
5628, 6729, 6730, 6741, 6740, 6498, 6499, 6510, 6509
5629, 6730, 6731, 6742, 6741, 6499, 6500, 6511, 6510
5630, 6731, 6732, 6743, 6742, 6500, 6501, 6512, 6511
5631, 6733, 6734, 6745, 6744, 6502, 6503, 6514, 6513
5632, 6734, 6735, 6746, 6745, 6503, 6504, 6515, 6514
5633, 6735, 6736, 6747, 6746, 6504, 6505, 6516, 6515
5634, 6736, 6737, 6748, 6747, 6505, 6506, 6517, 6516
5635, 6737, 6738, 6749, 6748, 6506, 6507, 6518, 6517
5636, 6738, 6739, 6750, 6749, 6507, 6508, 6519, 6518
5637, 6739, 6740, 6751, 6750, 6508, 6509, 6520, 6519
5638, 6740, 6741, 6752, 6751, 6509, 6510, 6521, 6520
5639, 6741, 6742, 6753, 6752, 6510, 6511, 6522, 6521
5640, 6742, 6743, 6754, 6753, 6511, 6512, 6523, 6522
5641, 6744, 6745, 6756, 6755, 6513, 6514, 6525, 6524
5642, 6745, 6746, 6757, 6756, 6514, 6515, 6526, 6525
5643, 6746, 6747, 6758, 6757, 6515, 6516, 6527, 6526
5644, 6747, 6748, 6759, 6758, 6516, 6517, 6528, 6527
5645, 6748, 6749, 6760, 6759, 6517, 6518, 6529, 6528
5646, 6749, 6750, 6761, 6760, 6518, 6519, 6530, 6529
5647, 6750, 6751, 6762, 6761, 6519, 6520, 6531, 6530
5648, 6751, 6752, 6763, 6762, 6520, 6521, 6532, 6531
5649, 6752, 6753, 6764, 6763, 6521, 6522, 6533, 6532
5650, 6753, 6754, 6765, 6764, 6522, 6523, 6534, 6533
5651, 6755, 6756, 6767, 6766, 6524, 6525, 6536, 6535
5652, 6756, 6757, 6768, 6767, 6525, 6526, 6537, 6536
5653, 6757, 6758, 6769, 6768, 6526, 6527, 6538, 6537
5654, 6758, 6759, 6770, 6769, 6527, 6528, 6539, 6538
5655, 6759, 6760, 6771, 6770, 6528, 6529, 6540, 6539
5656, 6760, 6761, 6772, 6771, 6529, 6530, 6541, 6540
5657, 6761, 6762, 6773, 6772, 6530, 6531, 6542, 6541
5658, 6762, 6763, 6774, 6773, 6531, 6532, 6543, 6542
5659, 6763, 6764, 6775, 6774, 6532, 6533, 6544, 6543
5660, 6764, 6765, 6776, 6775, 6533, 6534, 6545, 6544
5661, 6766, 6767, 6778, 6777, 6535, 6536, 6547, 6546
5662, 6767, 6768, 6779, 6778, 6536, 6537, 6548, 6547
5663, 6768, 6769, 6780, 6779, 6537, 6538, 6549, 6548
5664, 6769, 6770, 6781, 6780, 6538, 6539, 6550, 6549
5665, 6770, 6771, 6782, 6781, 6539, 6540, 6551, 6550
5666, 6771, 6772, 6783, 6782, 6540, 6541, 6552, 6551
5667, 6772, 6773, 6784, 6783, 6541, 6542, 6553, 6552
5668, 6773, 6774, 6785, 6784, 6542, 6543, 6554, 6553
5669, 6774, 6775, 6786, 6785, 6543, 6544, 6555, 6554
5670, 6775, 6776, 6787, 6786, 6544, 6545, 6556, 6555
5671, 6777, 6778, 6789, 6788, 6546, 6547, 6558, 6557
5672, 6778, 6779, 6790, 6789, 6547, 6548, 6559, 6558
5673, 6779, 6780, 6791, 6790, 6548, 6549, 6560, 6559
5674, 6780, 6781, 6792, 6791, 6549, 6550, 6561, 6560
5675, 6781, 6782, 6793, 6792, 6550, 6551, 6562, 6561
5676, 6782, 6783, 6794, 6793, 6551, 6552, 6563, 6562
5677, 6783, 6784, 6795, 6794, 6552, 6553, 6564, 6563
5678, 6784, 6785, 6796, 6795, 6553, 6554, 6565, 6564
5679, 6785, 6786, 6797, 6796, 6554, 6555, 6566, 6565
5680, 6786, 6787, 6798, 6797, 6555, 6556, 6567, 6566
5681, 6788, 6789, 6800, 6799, 6557, 6558, 6569, 6568
5682, 6789, 6790, 6801, 6800, 6558, 6559, 6570, 6569
5683, 6790, 6791, 6802, 6801, 6559, 6560, 6571, 6570
5684, 6791, 6792, 6803, 6802, 6560, 6561, 6572, 6571
5685, 6792, 6793, 6804, 6803, 6561, 6562, 6573, 6572
5686, 6793, 6794, 6805, 6804, 6562, 6563, 6574, 6573
5687, 6794, 6795, 6806, 6805, 6563, 6564, 6575, 6574
5688, 6795, 6796, 6807, 6806, 6564, 6565, 6576, 6575
5689, 6796, 6797, 6808, 6807, 6565, 6566, 6577, 6576
5690, 6797, 6798, 6809, 6808, 6566, 6567, 6578, 6577
5691, 6799, 6800, 6811, 6810, 6568, 6569, 6580, 6579
5692, 6800, 6801, 6812, 6811, 6569, 6570, 6581, 6580
5693, 6801, 6802, 6813, 6812, 6570, 6571, 6582, 6581
5694, 6802, 6803, 6814, 6813, 6571, 6572, 6583, 6582
5695, 6803, 6804, 6815, 6814, 6572, 6573, 6584, 6583
5696, 6804, 6805, 6816, 6815, 6573, 6574, 6585, 6584
5697, 6805, 6806, 6817, 6816, 6574, 6575, 6586, 6585
5698, 6806, 6807, 6818, 6817, 6575, 6576, 6587, 6586
5699, 6807, 6808, 6819, 6818, 6576, 6577, 6588, 6587
5700, 6808, 6809, 6820, 6819, 6577, 6578, 6589, 6588
5701, 6810, 6811, 6822, 6821, 6579, 6580, 6591, 6590
5702, 6811, 6812, 6823, 6822, 6580, 6581, 6592, 6591
5703, 6812, 6813, 6824, 6823, 6581, 6582, 6593, 6592
5704, 6813, 6814, 6825, 6824, 6582, 6583, 6594, 6593
5705, 6814, 6815, 6826, 6825, 6583, 6584, 6595, 6594
5706, 6815, 6816, 6827, 6826, 6584, 6585, 6596, 6595
5707, 6816, 6817, 6828, 6827, 6585, 6586, 6597, 6596
5708, 6817, 6818, 6829, 6828, 6586, 6587, 6598, 6597
5709, 6818, 6819, 6830, 6829, 6587, 6588, 6599, 6598
5710, 6819, 6820, 6831, 6830, 6588, 6589, 6600, 6599
5711, 6821, 6822, 6833, 6832, 6590, 6591, 6602, 6601
5712, 6822, 6823, 6834, 6833, 6591, 6592, 6603, 6602
5713, 6823, 6824, 6835, 6834, 6592, 6593, 6604, 6603
5714, 6824, 6825, 6836, 6835, 6593, 6594, 6605, 6604
5715, 6825, 6826, 6837, 6836, 6594, 6595, 6606, 6605
5716, 6826, 6827, 6838, 6837, 6595, 6596, 6607, 6606
5717, 6827, 6828, 6839, 6838, 6596, 6597, 6608, 6607
5718, 6828, 6829, 6840, 6839, 6597, 6598, 6609, 6608
5719, 6829, 6830, 6841, 6840, 6598, 6599, 6610, 6609
5720, 6830, 6831, 6842, 6841, 6599, 6600, 6611, 6610
5721, 6832, 6833, 6844, 6843, 6601, 6602, 6613, 6612
5722, 6833, 6834, 6845, 6844, 6602, 6603, 6614, 6613
5723, 6834, 6835, 6846, 6845, 6603, 6604, 6615, 6614
5724, 6835, 6836, 6847, 6846, 6604, 6605, 6616, 6615
5725, 6836, 6837, 6848, 6847, 6605, 6606, 6617, 6616
5726, 6837, 6838, 6849, 6848, 6606, 6607, 6618, 6617
5727, 6838, 6839, 6850, 6849, 6607, 6608, 6619, 6618
5728, 6839, 6840, 6851, 6850, 6608, 6609, 6620, 6619
5729, 6840, 6841, 6852, 6851, 6609, 6610, 6621, 6620
5730, 6841, 6842, 6853, 6852, 6610, 6611, 6622, 6621
5731, 6843, 6844, 6855, 6854, 6612, 6613, 6624, 6623
5732, 6844, 6845, 6856, 6855, 6613, 6614, 6625, 6624
5733, 6845, 6846, 6857, 6856, 6614, 6615, 6626, 6625
5734, 6846, 6847, 6858, 6857, 6615, 6616, 6627, 6626
5735, 6847, 6848, 6859, 6858, 6616, 6617, 6628, 6627
5736, 6848, 6849, 6860, 6859, 6617, 6618, 6629, 6628
5737, 6849, 6850, 6861, 6860, 6618, 6619, 6630, 6629
5738, 6850, 6851, 6862, 6861, 6619, 6620, 6631, 6630
5739, 6851, 6852, 6863, 6862, 6620, 6621, 6632, 6631
5740, 6852, 6853, 6864, 6863, 6621, 6622, 6633, 6632
5741, 6854, 6855, 6866, 6865, 6623, 6624, 6635, 6634
5742, 6855, 6856, 6867, 6866, 6624, 6625, 6636, 6635
5743, 6856, 6857, 6868, 6867, 6625, 6626, 6637, 6636
5744, 6857, 6858, 6869, 6868, 6626, 6627, 6638, 6637
5745, 6858, 6859, 6870, 6869, 6627, 6628, 6639, 6638
5746, 6859, 6860, 6871, 6870, 6628, 6629, 6640, 6639
5747, 6860, 6861, 6872, 6871, 6629, 6630, 6641, 6640
5748, 6861, 6862, 6873, 6872, 6630, 6631, 6642, 6641
5749, 6862, 6863, 6874, 6873, 6631, 6632, 6643, 6642
5750, 6863, 6864, 6875, 6874, 6632, 6633, 6644, 6643
5751, 6865, 6866, 6877, 6876, 6634, 6635, 6646, 6645
5752, 6866, 6867, 6878, 6877, 6635, 6636, 6647, 6646
5753, 6867, 6868, 6879, 6878, 6636, 6637, 6648, 6647
5754, 6868, 6869, 6880, 6879, 6637, 6638, 6649, 6648
5755, 6869, 6870, 6881, 6880, 6638, 6639, 6650, 6649
5756, 6870, 6871, 6882, 6881, 6639, 6640, 6651, 6650
5757, 6871, 6872, 6883, 6882, 6640, 6641, 6652, 6651
5758, 6872, 6873, 6884, 6883, 6641, 6642, 6653, 6652
5759, 6873, 6874, 6885, 6884, 6642, 6643, 6654, 6653
5760, 6874, 6875, 6886, 6885, 6643, 6644, 6655, 6654
5761, 6876, 6877, 6888, 6887, 6645, 6646, 6657, 6656
5762, 6877, 6878, 6889, 6888, 6646, 6647, 6658, 6657
5763, 6878, 6879, 6890, 6889, 6647, 6648, 6659, 6658
5764, 6879, 6880, 6891, 6890, 6648, 6649, 6660, 6659
5765, 6880, 6881, 6892, 6891, 6649, 6650, 6661, 6660
5766, 6881, 6882, 6893, 6892, 6650, 6651, 6662, 6661
5767, 6882, 6883, 6894, 6893, 6651, 6652, 6663, 6662
5768, 6883, 6884, 6895, 6894, 6652, 6653, 6664, 6663
5769, 6884, 6885, 6896, 6895, 6653, 6654, 6665, 6664
5770, 6885, 6886, 6897, 6896, 6654, 6655, 6666, 6665
5771, 6887, 6888, 6899, 6898, 6656, 6657, 6668, 6667
5772, 6888, 6889, 6900, 6899, 6657, 6658, 6669, 6668
5773, 6889, 6890, 6901, 6900, 6658, 6659, 6670, 6669
5774, 6890, 6891, 6902, 6901, 6659, 6660, 6671, 6670
5775, 6891, 6892, 6903, 6902, 6660, 6661, 6672, 6671
5776, 6892, 6893, 6904, 6903, 6661, 6662, 6673, 6672
5777, 6893, 6894, 6905, 6904, 6662, 6663, 6674, 6673
5778, 6894, 6895, 6906, 6905, 6663, 6664, 6675, 6674
5779, 6895, 6896, 6907, 6906, 6664, 6665, 6676, 6675
5780, 6896, 6897, 6908, 6907, 6665, 6666, 6677, 6676
5781, 6898, 6899, 6910, 6909, 6667, 6668, 6679, 6678
5782, 6899, 6900, 6911, 6910, 6668, 6669, 6680, 6679
5783, 6900, 6901, 6912, 6911, 6669, 6670, 6681, 6680
5784, 6901, 6902, 6913, 6912, 6670, 6671, 6682, 6681
5785, 6902, 6903, 6914, 6913, 6671, 6672, 6683, 6682
5786, 6903, 6904, 6915, 6914, 6672, 6673, 6684, 6683
5787, 6904, 6905, 6916, 6915, 6673, 6674, 6685, 6684
5788, 6905, 6906, 6917, 6916, 6674, 6675, 6686, 6685
5789, 6906, 6907, 6918, 6917, 6675, 6676, 6687, 6686
5790, 6907, 6908, 6919, 6918, 6676, 6677, 6688, 6687
5791, 6909, 6910, 6921, 6920, 6678, 6679, 6690, 6689
5792, 6910, 6911, 6922, 6921, 6679, 6680, 6691, 6690
5793, 6911, 6912, 6923, 6922, 6680, 6681, 6692, 6691
5794, 6912, 6913, 6924, 6923, 6681, 6682, 6693, 6692
5795, 6913, 6914, 6925, 6924, 6682, 6683, 6694, 6693
5796, 6914, 6915, 6926, 6925, 6683, 6684, 6695, 6694
5797, 6915, 6916, 6927, 6926, 6684, 6685, 6696, 6695
5798, 6916, 6917, 6928, 6927, 6685, 6686, 6697, 6696
5799, 6917, 6918, 6929, 6928, 6686, 6687, 6698, 6697
5800, 6918, 6919, 6930, 6929, 6687, 6688, 6699, 6698
5801, 6931, 6932, 6943, 6942, 6700, 6701, 6712, 6711
5802, 6932, 6933, 6944, 6943, 6701, 6702, 6713, 6712
5803, 6933, 6934, 6945, 6944, 6702, 6703, 6714, 6713
5804, 6934, 6935, 6946, 6945, 6703, 6704, 6715, 6714
5805, 6935, 6936, 6947, 6946, 6704, 6705, 6716, 6715
5806, 6936, 6937, 6948, 6947, 6705, 6706, 6717, 6716
5807, 6937, 6938, 6949, 6948, 6706, 6707, 6718, 6717
5808, 6938, 6939, 6950, 6949, 6707, 6708, 6719, 6718
5809, 6939, 6940, 6951, 6950, 6708, 6709, 6720, 6719
5810, 6940, 6941, 6952, 6951, 6709, 6710, 6721, 6720
5811, 6942, 6943, 6954, 6953, 6711, 6712, 6723, 6722
5812, 6943, 6944, 6955, 6954, 6712, 6713, 6724, 6723
5813, 6944, 6945, 6956, 6955, 6713, 6714, 6725, 6724
5814, 6945, 6946, 6957, 6956, 6714, 6715, 6726, 6725
5815, 6946, 6947, 6958, 6957, 6715, 6716, 6727, 6726
5816, 6947, 6948, 6959, 6958, 6716, 6717, 6728, 6727
5817, 6948, 6949, 6960, 6959, 6717, 6718, 6729, 6728
5818, 6949, 6950, 6961, 6960, 6718, 6719, 6730, 6729
5819, 6950, 6951, 6962, 6961, 6719, 6720, 6731, 6730
5820, 6951, 6952, 6963, 6962, 6720, 6721, 6732, 6731
5821, 6953, 6954, 6965, 6964, 6722, 6723, 6734, 6733
5822, 6954, 6955, 6966, 6965, 6723, 6724, 6735, 6734
5823, 6955, 6956, 6967, 6966, 6724, 6725, 6736, 6735
5824, 6956, 6957, 6968, 6967, 6725, 6726, 6737, 6736
5825, 6957, 6958, 6969, 6968, 6726, 6727, 6738, 6737
5826, 6958, 6959, 6970, 6969, 6727, 6728, 6739, 6738
5827, 6959, 6960, 6971, 6970, 6728, 6729, 6740, 6739
5828, 6960, 6961, 6972, 6971, 6729, 6730, 6741, 6740
5829, 6961, 6962, 6973, 6972, 6730, 6731, 6742, 6741
5830, 6962, 6963, 6974, 6973, 6731, 6732, 6743, 6742
5831, 6964, 6965, 6976, 6975, 6733, 6734, 6745, 6744
5832, 6965, 6966, 6977, 6976, 6734, 6735, 6746, 6745
5833, 6966, 6967, 6978, 6977, 6735, 6736, 6747, 6746
5834, 6967, 6968, 6979, 6978, 6736, 6737, 6748, 6747
5835, 6968, 6969, 6980, 6979, 6737, 6738, 6749, 6748
5836, 6969, 6970, 6981, 6980, 6738, 6739, 6750, 6749
5837, 6970, 6971, 6982, 6981, 6739, 6740, 6751, 6750
5838, 6971, 6972, 6983, 6982, 6740, 6741, 6752, 6751
5839, 6972, 6973, 6984, 6983, 6741, 6742, 6753, 6752
5840, 6973, 6974, 6985, 6984, 6742, 6743, 6754, 6753
5841, 6975, 6976, 6987, 6986, 6744, 6745, 6756, 6755
5842, 6976, 6977, 6988, 6987, 6745, 6746, 6757, 6756
5843, 6977, 6978, 6989, 6988, 6746, 6747, 6758, 6757
5844, 6978, 6979, 6990, 6989, 6747, 6748, 6759, 6758
5845, 6979, 6980, 6991, 6990, 6748, 6749, 6760, 6759
5846, 6980, 6981, 6992, 6991, 6749, 6750, 6761, 6760
5847, 6981, 6982, 6993, 6992, 6750, 6751, 6762, 6761
5848, 6982, 6983, 6994, 6993, 6751, 6752, 6763, 6762
5849, 6983, 6984, 6995, 6994, 6752, 6753, 6764, 6763
5850, 6984, 6985, 6996, 6995, 6753, 6754, 6765, 6764
5851, 6986, 6987, 6998, 6997, 6755, 6756, 6767, 6766
5852, 6987, 6988, 6999, 6998, 6756, 6757, 6768, 6767
5853, 6988, 6989, 7000, 6999, 6757, 6758, 6769, 6768
5854, 6989, 6990, 7001, 7000, 6758, 6759, 6770, 6769
5855, 6990, 6991, 7002, 7001, 6759, 6760, 6771, 6770
5856, 6991, 6992, 7003, 7002, 6760, 6761, 6772, 6771
5857, 6992, 6993, 7004, 7003, 6761, 6762, 6773, 6772
5858, 6993, 6994, 7005, 7004, 6762, 6763, 6774, 6773
5859, 6994, 6995, 7006, 7005, 6763, 6764, 6775, 6774
5860, 6995, 6996, 7007, 7006, 6764, 6765, 6776, 6775
5861, 6997, 6998, 7009, 7008, 6766, 6767, 6778, 6777
5862, 6998, 6999, 7010, 7009, 6767, 6768, 6779, 6778
5863, 6999, 7000, 7011, 7010, 6768, 6769, 6780, 6779
5864, 7000, 7001, 7012, 7011, 6769, 6770, 6781, 6780
5865, 7001, 7002, 7013, 7012, 6770, 6771, 6782, 6781
5866, 7002, 7003, 7014, 7013, 6771, 6772, 6783, 6782
5867, 7003, 7004, 7015, 7014, 6772, 6773, 6784, 6783
5868, 7004, 7005, 7016, 7015, 6773, 6774, 6785, 6784
5869, 7005, 7006, 7017, 7016, 6774, 6775, 6786, 6785
5870, 7006, 7007, 7018, 7017, 6775, 6776, 6787, 6786
5871, 7008, 7009, 7020, 7019, 6777, 6778, 6789, 6788
5872, 7009, 7010, 7021, 7020, 6778, 6779, 6790, 6789
5873, 7010, 7011, 7022, 7021, 6779, 6780, 6791, 6790
5874, 7011, 7012, 7023, 7022, 6780, 6781, 6792, 6791
5875, 7012, 7013, 7024, 7023, 6781, 6782, 6793, 6792
5876, 7013, 7014, 7025, 7024, 6782, 6783, 6794, 6793
5877, 7014, 7015, 7026, 7025, 6783, 6784, 6795, 6794
5878, 7015, 7016, 7027, 7026, 6784, 6785, 6796, 6795
5879, 7016, 7017, 7028, 7027, 6785, 6786, 6797, 6796
5880, 7017, 7018, 7029, 7028, 6786, 6787, 6798, 6797
5881, 7019, 7020, 7031, 7030, 6788, 6789, 6800, 6799
5882, 7020, 7021, 7032, 7031, 6789, 6790, 6801, 6800
5883, 7021, 7022, 7033, 7032, 6790, 6791, 6802, 6801
5884, 7022, 7023, 7034, 7033, 6791, 6792, 6803, 6802
5885, 7023, 7024, 7035, 7034, 6792, 6793, 6804, 6803
5886, 7024, 7025, 7036, 7035, 6793, 6794, 6805, 6804
5887, 7025, 7026, 7037, 7036, 6794, 6795, 6806, 6805
5888, 7026, 7027, 7038, 7037, 6795, 6796, 6807, 6806
5889, 7027, 7028, 7039, 7038, 6796, 6797, 6808, 6807
5890, 7028, 7029, 7040, 7039, 6797, 6798, 6809, 6808
5891, 7030, 7031, 7042, 7041, 6799, 6800, 6811, 6810
5892, 7031, 7032, 7043, 7042, 6800, 6801, 6812, 6811
5893, 7032, 7033, 7044, 7043, 6801, 6802, 6813, 6812
5894, 7033, 7034, 7045, 7044, 6802, 6803, 6814, 6813
5895, 7034, 7035, 7046, 7045, 6803, 6804, 6815, 6814
5896, 7035, 7036, 7047, 7046, 6804, 6805, 6816, 6815
5897, 7036, 7037, 7048, 7047, 6805, 6806, 6817, 6816
5898, 7037, 7038, 7049, 7048, 6806, 6807, 6818, 6817
5899, 7038, 7039, 7050, 7049, 6807, 6808, 6819, 6818
5900, 7039, 7040, 7051, 7050, 6808, 6809, 6820, 6819
5901, 7041, 7042, 7053, 7052, 6810, 6811, 6822, 6821
5902, 7042, 7043, 7054, 7053, 6811, 6812, 6823, 6822
5903, 7043, 7044, 7055, 7054, 6812, 6813, 6824, 6823
5904, 7044, 7045, 7056, 7055, 6813, 6814, 6825, 6824
5905, 7045, 7046, 7057, 7056, 6814, 6815, 6826, 6825
5906, 7046, 7047, 7058, 7057, 6815, 6816, 6827, 6826
5907, 7047, 7048, 7059, 7058, 6816, 6817, 6828, 6827
5908, 7048, 7049, 7060, 7059, 6817, 6818, 6829, 6828
5909, 7049, 7050, 7061, 7060, 6818, 6819, 6830, 6829
5910, 7050, 7051, 7062, 7061, 6819, 6820, 6831, 6830
5911, 7052, 7053, 7064, 7063, 6821, 6822, 6833, 6832
5912, 7053, 7054, 7065, 7064, 6822, 6823, 6834, 6833
5913, 7054, 7055, 7066, 7065, 6823, 6824, 6835, 6834
5914, 7055, 7056, 7067, 7066, 6824, 6825, 6836, 6835
5915, 7056, 7057, 7068, 7067, 6825, 6826, 6837, 6836
5916, 7057, 7058, 7069, 7068, 6826, 6827, 6838, 6837
5917, 7058, 7059, 7070, 7069, 6827, 6828, 6839, 6838
5918, 7059, 7060, 7071, 7070, 6828, 6829, 6840, 6839
5919, 7060, 7061, 7072, 7071, 6829, 6830, 6841, 6840
5920, 7061, 7062, 7073, 7072, 6830, 6831, 6842, 6841
5921, 7063, 7064, 7075, 7074, 6832, 6833, 6844, 6843
5922, 7064, 7065, 7076, 7075, 6833, 6834, 6845, 6844
5923, 7065, 7066, 7077, 7076, 6834, 6835, 6846, 6845
5924, 7066, 7067, 7078, 7077, 6835, 6836, 6847, 6846
5925, 7067, 7068, 7079, 7078, 6836, 6837, 6848, 6847
5926, 7068, 7069, 7080, 7079, 6837, 6838, 6849, 6848
5927, 7069, 7070, 7081, 7080, 6838, 6839, 6850, 6849
5928, 7070, 7071, 7082, 7081, 6839, 6840, 6851, 6850
5929, 7071, 7072, 7083, 7082, 6840, 6841, 6852, 6851
5930, 7072, 7073, 7084, 7083, 6841, 6842, 6853, 6852
5931, 7074, 7075, 7086, 7085, 6843, 6844, 6855, 6854
5932, 7075, 7076, 7087, 7086, 6844, 6845, 6856, 6855
5933, 7076, 7077, 7088, 7087, 6845, 6846, 6857, 6856
5934, 7077, 7078, 7089, 7088, 6846, 6847, 6858, 6857
5935, 7078, 7079, 7090, 7089, 6847, 6848, 6859, 6858
5936, 7079, 7080, 7091, 7090, 6848, 6849, 6860, 6859
5937, 7080, 7081, 7092, 7091, 6849, 6850, 6861, 6860
5938, 7081, 7082, 7093, 7092, 6850, 6851, 6862, 6861
5939, 7082, 7083, 7094, 7093, 6851, 6852, 6863, 6862
5940, 7083, 7084, 7095, 7094, 6852, 6853, 6864, 6863
5941, 7085, 7086, 7097, 7096, 6854, 6855, 6866, 6865
5942, 7086, 7087, 7098, 7097, 6855, 6856, 6867, 6866
5943, 7087, 7088, 7099, 7098, 6856, 6857, 6868, 6867
5944, 7088, 7089, 7100, 7099, 6857, 6858, 6869, 6868
5945, 7089, 7090, 7101, 7100, 6858, 6859, 6870, 6869
5946, 7090, 7091, 7102, 7101, 6859, 6860, 6871, 6870
5947, 7091, 7092, 7103, 7102, 6860, 6861, 6872, 6871
5948, 7092, 7093, 7104, 7103, 6861, 6862, 6873, 6872
5949, 7093, 7094, 7105, 7104, 6862, 6863, 6874, 6873
5950, 7094, 7095, 7106, 7105, 6863, 6864, 6875, 6874
5951, 7096, 7097, 7108, 7107, 6865, 6866, 6877, 6876
5952, 7097, 7098, 7109, 7108, 6866, 6867, 6878, 6877
5953, 7098, 7099, 7110, 7109, 6867, 6868, 6879, 6878
5954, 7099, 7100, 7111, 7110, 6868, 6869, 6880, 6879
5955, 7100, 7101, 7112, 7111, 6869, 6870, 6881, 6880
5956, 7101, 7102, 7113, 7112, 6870, 6871, 6882, 6881
5957, 7102, 7103, 7114, 7113, 6871, 6872, 6883, 6882
5958, 7103, 7104, 7115, 7114, 6872, 6873, 6884, 6883
5959, 7104, 7105, 7116, 7115, 6873, 6874, 6885, 6884
5960, 7105, 7106, 7117, 7116, 6874, 6875, 6886, 6885
5961, 7107, 7108, 7119, 7118, 6876, 6877, 6888, 6887
5962, 7108, 7109, 7120, 7119, 6877, 6878, 6889, 6888
5963, 7109, 7110, 7121, 7120, 6878, 6879, 6890, 6889
5964, 7110, 7111, 7122, 7121, 6879, 6880, 6891, 6890
5965, 7111, 7112, 7123, 7122, 6880, 6881, 6892, 6891
5966, 7112, 7113, 7124, 7123, 6881, 6882, 6893, 6892
5967, 7113, 7114, 7125, 7124, 6882, 6883, 6894, 6893
5968, 7114, 7115, 7126, 7125, 6883, 6884, 6895, 6894
5969, 7115, 7116, 7127, 7126, 6884, 6885, 6896, 6895
5970, 7116, 7117, 7128, 7127, 6885, 6886, 6897, 6896
5971, 7118, 7119, 7130, 7129, 6887, 6888, 6899, 6898
5972, 7119, 7120, 7131, 7130, 6888, 6889, 6900, 6899
5973, 7120, 7121, 7132, 7131, 6889, 6890, 6901, 6900
5974, 7121, 7122, 7133, 7132, 6890, 6891, 6902, 6901
5975, 7122, 7123, 7134, 7133, 6891, 6892, 6903, 6902
5976, 7123, 7124, 7135, 7134, 6892, 6893, 6904, 6903
5977, 7124, 7125, 7136, 7135, 6893, 6894, 6905, 6904
5978, 7125, 7126, 7137, 7136, 6894, 6895, 6906, 6905
5979, 7126, 7127, 7138, 7137, 6895, 6896, 6907, 6906
5980, 7127, 7128, 7139, 7138, 6896, 6897, 6908, 6907
5981, 7129, 7130, 7141, 7140, 6898, 6899, 6910, 6909
5982, 7130, 7131, 7142, 7141, 6899, 6900, 6911, 6910
5983, 7131, 7132, 7143, 7142, 6900, 6901, 6912, 6911
5984, 7132, 7133, 7144, 7143, 6901, 6902, 6913, 6912
5985, 7133, 7134, 7145, 7144, 6902, 6903, 6914, 6913
5986, 7134, 7135, 7146, 7145, 6903, 6904, 6915, 6914
5987, 7135, 7136, 7147, 7146, 6904, 6905, 6916, 6915
5988, 7136, 7137, 7148, 7147, 6905, 6906, 6917, 6916
5989, 7137, 7138, 7149, 7148, 6906, 6907, 6918, 6917
5990, 7138, 7139, 7150, 7149, 6907, 6908, 6919, 6918
5991, 7140, 7141, 7152, 7151, 6909, 6910, 6921, 6920
5992, 7141, 7142, 7153, 7152, 6910, 6911, 6922, 6921
5993, 7142, 7143, 7154, 7153, 6911, 6912, 6923, 6922
5994, 7143, 7144, 7155, 7154, 6912, 6913, 6924, 6923
5995, 7144, 7145, 7156, 7155, 6913, 6914, 6925, 6924
5996, 7145, 7146, 7157, 7156, 6914, 6915, 6926, 6925
5997, 7146, 7147, 7158, 7157, 6915, 6916, 6927, 6926
5998, 7147, 7148, 7159, 7158, 6916, 6917, 6928, 6927
5999, 7148, 7149, 7160, 7159, 6917, 6918, 6929, 6928
6000, 7149, 7150, 7161, 7160, 6918, 6919, 6930, 6929
*Elset, elset=vs
1
2
3
4
5
6
7
8
9
10
11
12
13
14
15
16
17
18
19
20
21
22
23
24
25
26
27
28
29
30
31
32
33
34
35
36
37
38
39
40
41
42
43
44
45
46
47
48
49
50
51
52
53
54
55
56
57
58
59
60
61
62
63
64
67
68
69
70
71
72
79
80
81
90
111
120
121
122
129
130
131
132
133
134
137
138
139
140
141
142
143
144
145
146
147
148
149
150
151
152
153
154
155
156
157
158
159
160
161
162
163
164
165
166
167
168
169
170
171
172
173
174
175
176
177
178
179
180
181
182
183
184
185
186
187
188
189
190
191
192
193
194
195
196
197
198
199
200
201
202
203
204
205
206
207
208
209
210
211
212
213
214
215
216
217
218
219
220
221
222
223
224
225
226
227
228
229
230
231
232
233
234
235
236
237
238
239
240
241
242
243
244
245
246
247
248
249
250
251
252
253
254
255
256
257
258
259
260
261
262
263
264
267
268
269
270
271
272
279
280
281
290
291
300
301
310
311
320
321
322
329
330
331
332
333
334
337
338
339
340
341
342
343
344
345
346
347
348
349
350
351
352
353
354
355
356
357
358
359
360
361
362
363
364
365
366
367
368
369
370
371
372
373
374
375
376
377
378
379
380
381
382
383
384
385
386
387
388
389
390
391
392
393
394
395
396
397
398
399
400
401
402
403
404
405
406
407
408
409
410
411
412
413
414
415
416
417
418
419
420
421
422
423
424
425
426
427
428
429
430
431
432
433
434
435
436
437
438
439
440
441
442
443
444
445
446
447
448
449
450
451
452
453
454
455
456
457
458
459
460
461
462
463
464
467
468
469
470
471
472
473
478
479
480
481
482
489
490
491
500
501
510
511
512
519
520
521
522
523
528
529
530
531
532
533
534
537
538
539
540
541
542
543
544
545
546
547
548
549
550
551
552
553
554
555
556
557
558
559
560
561
562
563
564
565
566
567
568
569
570
571
572
573
574
575
576
577
578
579
580
581
582
583
584
585
586
587
588
589
590
591
592
593
594
595
596
597
598
599
600
601
602
603
604
605
606
607
608
609
610
611
612
613
614
615
616
617
618
619
620
621
622
623
624
625
626
627
628
629
630
631
632
633
634
635
636
637
638
639
640
641
642
643
644
645
646
647
648
649
650
651
652
653
654
655
656
657
658
659
660
661
662
663
664
667
668
669
670
671
672
673
678
679
680
681
682
689
690
691
692
699
700
701
702
709
710
711
712
719
720
721
722
723
728
729
730
731
732
733
734
737
738
739
740
741
742
743
744
745
746
747
748
749
750
751
752
753
754
755
756
757
758
759
760
761
762
763
764
765
766
767
768
769
770
771
772
773
774
775
776
777
778
779
780
781
782
783
784
785
786
787
788
789
790
791
792
793
794
795
796
797
798
799
800
801
802
803
804
805
806
807
808
809
810
811
812
813
814
815
816
817
818
819
820
821
822
823
824
825
826
827
828
829
830
831
832
833
834
835
836
837
838
839
840
841
842
843
844
845
846
847
848
849
850
851
852
853
854
855
856
857
858
859
860
861
862
863
868
869
870
871
872
873
878
879
880
881
882
883
888
889
890
891
892
893
898
899
900
901
902
903
908
909
910
911
912
913
918
919
920
921
922
923
928
929
930
931
932
933
938
939
940
941
942
943
944
945
946
947
948
949
950
951
952
953
954
955
956
957
958
959
960
961
962
963
964
965
966
967
968
969
970
971
972
973
974
975
976
977
978
979
980
981
982
983
984
985
986
987
988
989
990
991
992
993
994
995
996
997
998
999
1000
1001
1002
1003
1004
1005
1006
1007
1008
1009
1010
1011
1012
1013
1014
1015
1016
1017
1018
1019
1020
1021
1022
1023
1024
1025
1026
1027
1028
1029
1030
1031
1032
1033
1034
1035
1036
1037
1038
1039
1040
1041
1042
1043
1044
1045
1046
1047
1048
1049
1050
1051
1052
1053
1054
1057
1058
1059
1060
1061
1062
1063
1068
1069
1070
1071
1072
1073
1078
1079
1080
1081
1082
1083
1088
1089
1090
1091
1092
1093
1098
1099
1100
1101
1102
1103
1108
1109
1110
1111
1112
1113
1118
1119
1120
1121
1122
1123
1128
1129
1130
1131
1132
1133
1138
1139
1140
1141
1142
1143
1144
1147
1148
1149
1150
1151
1152
1153
1154
1155
1156
1157
1158
1159
1160
1161
1162
1163
1164
1165
1166
1167
1168
1169
1170
1171
1172
1173
1174
1175
1176
1177
1178
1179
1180
1181
1182
1183
1184
1185
1186
1187
1188
1189
1190
1191
1192
1193
1194
1195
1196
1197
1198
1199
1200
1201
1202
1203
1204
1205
1206
1207
1208
1209
1210
1211
1212
1213
1214
1215
1216
1217
1218
1219
1220
1221
1222
1223
1224
1225
1226
1227
1228
1229
1230
1231
1232
1233
1234
1235
1236
1237
1238
1239
1240
1241
1242
1243
1244
1245
1246
1247
1248
1249
1250
1251
1252
1253
1254
1257
1258
1259
1260
1261
1262
1263
1268
1269
1270
1271
1272
1273
1278
1279
1280
1281
1282
1283
1288
1289
1290
1291
1292
1293
1298
1299
1300
1301
1302
1303
1308
1309
1310
1311
1312
1313
1318
1319
1320
1321
1322
1323
1328
1329
1330
1331
1332
1333
1338
1339
1340
1341
1342
1343
1344
1347
1348
1349
1350
1351
1352
1353
1354
1355
1356
1357
1358
1359
1360
1361
1362
1363
1364
1365
1366
1367
1368
1369
1370
1371
1372
1373
1374
1375
1376
1377
1378
1379
1380
1381
1382
1383
1384
1385
1386
1387
1388
1389
1390
1391
1392
1393
1394
1395
1396
1397
1398
1399
1400
1401
1402
1403
1404
1405
1406
1407
1408
1409
1410
1411
1412
1413
1414
1415
1416
1417
1418
1419
1420
1421
1422
1423
1424
1425
1426
1427
1428
1429
1430
1431
1432
1433
1434
1435
1436
1437
1438
1439
1440
1441
1442
1443
1444
1445
1446
1447
1448
1449
1450
1451
1452
1453
1458
1459
1460
1461
1462
1463
1468
1469
1470
1471
1472
1473
1478
1479
1480
1481
1482
1483
1488
1489
1490
1491
1492
1493
1498
1499
1500
1501
1502
1503
1508
1509
1510
1511
1512
1513
1518
1519
1520
1521
1522
1523
1528
1529
1530
1531
1532
1533
1538
1539
1540
1541
1542
1543
1548
1549
1550
1551
1552
1553
1554
1555
1556
1557
1558
1559
1560
1561
1562
1563
1564
1565
1566
1567
1568
1569
1570
1571
1572
1573
1574
1575
1576
1577
1578
1579
1580
1581
1582
1583
1584
1585
1586
1587
1588
1589
1590
1591
1592
1593
1594
1595
1596
1597
1598
1599
1600
1601
1602
1603
1604
1605
1606
1607
1608
1609
1610
1611
1612
1613
1614
1615
1616
1617
1618
1619
1620
1621
1622
1623
1624
1625
1626
1627
1628
1629
1630
1631
1632
1633
1634
1635
1636
1637
1638
1639
1640
1641
1642
1643
1644
1645
1646
1647
1648
1649
1650
1651
1652
1653
1658
1659
1660
1661
1662
1663
1668
1669
1670
1671
1672
1673
1678
1679
1680
1681
1682
1683
1688
1689
1690
1691
1692
1693
1698
1699
1700
1701
1702
1703
1708
1709
1710
1711
1712
1713
1718
1719
1720
1721
1722
1723
1728
1729
1730
1731
1732
1733
1738
1739
1740
1741
1742
1743
1748
1749
1750
1751
1752
1753
1754
1755
1756
1757
1758
1759
1760
1761
1762
1763
1764
1765
1766
1767
1768
1769
1770
1771
1772
1773
1774
1775
1776
1777
1778
1779
1780
1781
1782
1783
1784
1785
1786
1787
1788
1789
1790
1791
1792
1793
1794
1795
1796
1797
1798
1799
1800
1801
1802
1803
1804
1805
1806
1807
1808
1809
1810
1811
1812
1813
1814
1815
1816
1817
1818
1819
1820
1821
1822
1823
1824
1825
1826
1827
1828
1829
1830
1831
1832
1833
1834
1835
1836
1837
1838
1839
1840
1841
1842
1843
1844
1847
1848
1849
1850
1851
1852
1853
1858
1859
1860
1861
1862
1863
1868
1869
1870
1871
1872
1873
1878
1879
1880
1881
1882
1883
1888
1889
1890
1891
1892
1893
1894
1897
1898
1899
1900
1901
1902
1903
1904
1907
1908
1909
1910
1911
1912
1913
1918
1919
1920
1921
1922
1923
1928
1929
1930
1931
1932
1933
1938
1939
1940
1941
1942
1943
1948
1949
1950
1951
1952
1953
1954
1957
1958
1959
1960
1961
1962
1963
1964
1965
1966
1967
1968
1969
1970
1971
1972
1973
1974
1975
1976
1977
1978
1979
1980
1981
1982
1983
1984
1985
1986
1987
1988
1989
1990
1991
1992
1993
1994
1995
1996
1997
1998
1999
2000
2001
2002
2003
2004
2005
2006
2007
2008
2009
2010
2011
2012
2013
2014
2015
2016
2017
2018
2019
2020
2021
2022
2023
2024
2025
2026
2027
2028
2029
2030
2031
2032
2033
2034
2035
2036
2037
2038
2039
2040
2041
2042
2043
2044
2047
2048
2049
2050
2051
2052
2053
2058
2059
2060
2061
2062
2063
2068
2069
2070
2071
2072
2073
2078
2079
2080
2081
2082
2083
2088
2089
2090
2091
2092
2093
2094
2095
2096
2097
2098
2099
2100
2101
2102
2103
2104
2105
2106
2107
2108
2109
2110
2111
2112
2113
2118
2119
2120
2121
2122
2123
2128
2129
2130
2131
2132
2133
2138
2139
2140
2141
2142
2143
2148
2149
2150
2151
2152
2153
2154
2157
2158
2159
2160
2161
2162
2163
2164
2165
2166
2167
2168
2169
2170
2171
2172
2173
2174
2175
2176
2177
2178
2179
2180
2181
2182
2183
2184
2185
2186
2187
2188
2189
2190
2191
2192
2193
2194
2195
2196
2197
2198
2199
2200
2201
2202
2203
2204
2205
2206
2207
2208
2209
2210
2211
2212
2213
2214
2215
2216
2217
2218
2219
2220
2221
2222
2223
2224
2225
2226
2227
2228
2229
2230
2231
2232
2233
2234
2235
2236
2237
2238
2239
2240
2241
2242
2243
2248
2249
2250
2251
2252
2253
2258
2259
2260
2261
2262
2263
2268
2269
2270
2271
2272
2273
2278
2279
2280
2281
2282
2283
2284
2287
2288
2289
2290
2291
2292
2293
2294
2295
2296
2297
2298
2299
2300
2301
2302
2303
2304
2305
2306
2307
2308
2309
2310
2311
2312
2313
2314
2317
2318
2319
2320
2321
2322
2323
2328
2329
2330
2331
2332
2333
2338
2339
2340
2341
2342
2343
2348
2349
2350
2351
2352
2353
2358
2359
2360
2361
2362
2363
2364
2365
2366
2367
2368
2369
2370
2371
2372
2373
2374
2375
2376
2377
2378
2379
2380
2381
2382
2383
2384
2385
2386
2387
2388
2389
2390
2391
2392
2393
2394
2395
2396
2397
2398
2399
2400
2401
2402
2403
2404
2405
2406
2407
2408
2409
2410
2411
2412
2413
2414
2415
2416
2417
2418
2419
2420
2421
2422
2423
2424
2425
2426
2427
2428
2429
2430
2431
2432
2433
2434
2437
2438
2439
2440
2441
2442
2443
2448
2449
2450
2451
2452
2453
2458
2459
2460
2461
2462
2463
2468
2469
2470
2471
2472
2473
2478
2479
2480
2481
2482
2483
2484
2485
2486
2487
2488
2489
2490
2491
2492
2493
2494
2495
2496
2497
2498
2499
2500
2501
2502
2503
2504
2505
2506
2507
2508
2509
2510
2511
2512
2513
2514
2515
2516
2517
2518
2519
2520
2521
2522
2523
2528
2529
2530
2531
2532
2533
2538
2539
2540
2541
2542
2543
2548
2549
2550
2551
2552
2553
2558
2559
2560
2561
2562
2563
2564
2567
2568
2569
2570
2571
2572
2573
2574
2575
2576
2577
2578
2579
2580
2581
2582
2583
2584
2585
2586
2587
2588
2589
2590
2591
2592
2593
2594
2595
2596
2597
2598
2599
2600
2601
2602
2603
2604
2605
2606
2607
2608
2609
2610
2611
2612
2613
2614
2615
2616
2617
2618
2619
2620
2621
2622
2623
2624
2625
2626
2627
2628
2629
2630
2631
2632
2633
2634
2637
2638
2639
2640
2641
2642
2643
2648
2649
2650
2651
2652
2653
2658
2659
2660
2661
2662
2663
2668
2669
2670
2671
2672
2673
2678
2679
2680
2681
2682
2683
2684
2685
2686
2687
2688
2689
2690
2691
2692
2693
2694
2695
2696
2697
2698
2699
2700
2701
2702
2703
2704
2705
2706
2707
2708
2709
2710
2711
2712
2713
2714
2715
2716
2717
2718
2719
2720
2721
2722
2723
2728
2729
2730
2731
2732
2733
2738
2739
2740
2741
2742
2743
2748
2749
2750
2751
2752
2753
2758
2759
2760
2761
2762
2763
2764
2767
2768
2769
2770
2771
2772
2773
2774
2775
2776
2777
2778
2779
2780
2781
2782
2783
2784
2785
2786
2787
2788
2789
2790
2791
2792
2793
2794
2795
2796
2797
2798
2799
2800
2801
2802
2803
2804
2805
2806
2807
2808
2809
2810
2811
2812
2813
2814
2815
2816
2817
2818
2819
2820
2821
2822
2823
2824
2825
2826
2827
2828
2829
2830
2831
2832
2833
2838
2839
2840
2841
2842
2843
2848
2849
2850
2851
2852
2853
2858
2859
2860
2861
2862
2863
2868
2869
2870
2871
2872
2873
2874
2877
2878
2879
2880
2881
2882
2883
2884
2885
2886
2887
2888
2889
2890
2891
2892
2893
2894
2895
2896
2897
2898
2899
2900
2901
2902
2903
2904
2905
2906
2907
2908
2909
2910
2911
2912
2913
2914
2915
2916
2917
2918
2919
2920
2921
2922
2923
2924
2927
2928
2929
2930
2931
2932
2933
2938
2939
2940
2941
2942
2943
2948
2949
2950
2951
2952
2953
2958
2959
2960
2961
2962
2963
2968
2969
2970
2971
2972
2973
2974
2975
2976
2977
2978
2979
2980
2981
2982
2983
2984
2985
2986
2987
2988
2989
2990
2991
2992
2993
2994
2995
2996
2997
2998
2999
3000
3001
3002
3003
3004
3005
3006
3007
3008
3009
3010
3011
3012
3013
3014
3015
3016
3017
3018
3019
3020
3021
3022
3023
3024
3027
3028
3029
3030
3031
3032
3033
3038
3039
3040
3041
3042
3043
3048
3049
3050
3051
3052
3053
3058
3059
3060
3061
3062
3063
3068
3069
3070
3071
3072
3073
3074
3075
3076
3077
3078
3079
3080
3081
3082
3083
3084
3085
3086
3087
3088
3089
3090
3091
3092
3093
3094
3095
3096
3097
3098
3099
3100
3101
3102
3103
3104
3105
3106
3107
3108
3109
3110
3111
3112
3113
3114
3115
3116
3117
3118
3119
3120
3121
3122
3123
3124
3125
3126
3127
3128
3129
3130
3131
3132
3133
3138
3139
3140
3141
3142
3143
3148
3149
3150
3151
3152
3153
3158
3159
3160
3161
3162
3163
3168
3169
3170
3171
3172
3173
3174
3177
3178
3179
3180
3181
3182
3183
3184
3185
3186
3187
3188
3189
3190
3191
3192
3193
3194
3195
3196
3197
3198
3199
3200
3201
3202
3203
3204
3205
3206
3207
3208
3209
3210
3211
3212
3213
3214
3215
3216
3217
3218
3219
3220
3221
3222
3223
3224
3227
3228
3229
3230
3231
3232
3233
3238
3239
3240
3241
3242
3243
3248
3249
3250
3251
3252
3253
3258
3259
3260
3261
3262
3263
3264
3267
3268
3269
3270
3271
3272
3273
3274
3275
3276
3277
3278
3279
3280
3281
3282
3283
3284
3285
3286
3287
3288
3289
3290
3291
3292
3293
3294
3295
3296
3297
3298
3299
3300
3301
3302
3303
3304
3305
3306
3307
3308
3309
3310
3311
3312
3313
3314
3315
3316
3317
3318
3319
3320
3321
3322
3323
3324
3325
3326
3327
3328
3329
3330
3331
3332
3333
3334
3337
3338
3339
3340
3341
3342
3343
3348
3349
3350
3351
3352
3353
3358
3359
3360
3361
3362
3363
3368
3369
3370
3371
3372
3373
3374
3377
3378
3379
3380
3381
3382
3383
3384
3385
3386
3387
3388
3389
3390
3391
3392
3393
3394
3395
3396
3397
3398
3399
3400
3401
3402
3403
3404
3405
3406
3407
3408
3409
3410
3411
3412
3413
3414
3415
3416
3417
3418
3419
3420
3421
3422
3423
3428
3429
3430
3431
3432
3433
3438
3439
3440
3441
3442
3443
3448
3449
3450
3451
3452
3453
3458
3459
3460
3461
3462
3463
3464
3467
3468
3469
3470
3471
3472
3473
3474
3475
3476
3477
3478
3479
3480
3481
3482
3483
3484
3485
3486
3487
3488
3489
3490
3491
3492
3493
3494
3495
3496
3497
3498
3499
3500
3501
3502
3503
3504
3505
3506
3507
3508
3509
3510
3511
3512
3513
3514
3515
3516
3517
3518
3519
3520
3521
3522
3523
3524
3525
3526
3527
3528
3529
3530
3531
3532
3533
3534
3537
3538
3539
3540
3541
3542
3543
3548
3549
3550
3551
3552
3553
3558
3559
3560
3561
3562
3563
3568
3569
3570
3571
3572
3573
3578
3579
3580
3581
3582
3583
3584
3585
3586
3587
3588
3589
3590
3591
3592
3593
3594
3595
3596
3597
3598
3599
3600
3601
3602
3603
3604
3605
3606
3607
3608
3609
3610
3611
3612
3613
3614
3617
3618
3619
3620
3621
3622
3623
3628
3629
3630
3631
3632
3633
3638
3639
3640
3641
3642
3643
3648
3649
3650
3651
3652
3653
3658
3659
3660
3661
3662
3663
3664
3665
3666
3667
3668
3669
3670
3671
3672
3673
3674
3675
3676
3677
3678
3679
3680
3681
3682
3683
3684
3685
3686
3687
3688
3689
3690
3691
3692
3693
3694
3695
3696
3697
3698
3699
3700
3701
3702
3703
3704
3705
3706
3707
3708
3709
3710
3711
3712
3713
3714
3715
3716
3717
3718
3719
3720
3721
3722
3723
3724
3725
3726
3727
3728
3729
3730
3731
3732
3733
3734
3735
3736
3737
3738
3739
3740
3741
3742
3743
3748
3749
3750
3751
3752
3753
3758
3759
3760
3761
3762
3763
3768
3769
3770
3771
3772
3773
3778
3779
3780
3781
3782
3783
3784
3787
3788
3789
3790
3791
3792
3793
3794
3795
3796
3797
3798
3799
3800
3801
3802
3803
3804
3805
3806
3807
3808
3809
3810
3811
3812
3813
3818
3819
3820
3821
3822
3823
3828
3829
3830
3831
3832
3833
3838
3839
3840
3841
3842
3843
3848
3849
3850
3851
3852
3853
3858
3859
3860
3861
3862
3863
3864
3865
3866
3867
3868
3869
3870
3871
3872
3873
3874
3875
3876
3877
3878
3879
3880
3881
3882
3883
3884
3885
3886
3887
3888
3889
3890
3891
3892
3893
3894
3895
3896
3897
3898
3899
3900
3901
3902
3903
3904
3905
3906
3907
3908
3909
3910
3911
3912
3913
3914
3915
3916
3917
3918
3919
3920
3921
3922
3923
3924
3925
3926
3927
3928
3929
3930
3931
3932
3933
3934
3935
3936
3937
3938
3939
3940
3941
3942
3943
3948
3949
3950
3951
3952
3953
3958
3959
3960
3961
3962
3963
3968
3969
3970
3971
3972
3973
3978
3979
3980
3981
3982
3983
3988
3989
3990
3991
3992
3993
3994
3995
3996
3997
3998
3999
4000
4001
4002
4003
4004
4007
4008
4009
4010
4011
4012
4013
4018
4019
4020
4021
4022
4023
4028
4029
4030
4031
4032
4033
4038
4039
4040
4041
4042
4043
4048
4049
4050
4051
4052
4053
4054
4057
4058
4059
4060
4061
4062
4063
4064
4065
4066
4067
4068
4069
4070
4071
4072
4073
4074
4075
4076
4077
4078
4079
4080
4081
4082
4083
4084
4085
4086
4087
4088
4089
4090
4091
4092
4093
4094
4095
4096
4097
4098
4099
4100
4101
4102
4103
4104
4105
4106
4107
4108
4109
4110
4111
4112
4113
4114
4115
4116
4117
4118
4119
4120
4121
4122
4123
4124
4125
4126
4127
4128
4129
4130
4131
4132
4133
4134
4135
4136
4137
4138
4139
4140
4141
4142
4143
4144
4147
4148
4149
4150
4151
4152
4153
4158
4159
4160
4161
4162
4163
4168
4169
4170
4171
4172
4173
4178
4179
4180
4181
4182
4183
4188
4189
4190
4191
4192
4193
4194
4197
4198
4199
4200
4201
4202
4203
4204
4207
4208
4209
4210
4211
4212
4213
4218
4219
4220
4221
4222
4223
4228
4229
4230
4231
4232
4233
4238
4239
4240
4241
4242
4243
4248
4249
4250
4251
4252
4253
4254
4255
4256
4257
4258
4259
4260
4261
4262
4263
4264
4265
4266
4267
4268
4269
4270
4271
4272
4273
4274
4275
4276
4277
4278
4279
4280
4281
4282
4283
4284
4285
4286
4287
4288
4289
4290
4291
4292
4293
4294
4295
4296
4297
4298
4299
4300
4301
4302
4303
4304
4305
4306
4307
4308
4309
4310
4311
4312
4313
4314
4315
4316
4317
4318
4319
4320
4321
4322
4323
4324
4325
4326
4327
4328
4329
4330
4331
4332
4333
4334
4335
4336
4337
4338
4339
4340
4341
4342
4343
4344
4345
4346
4347
4348
4349
4350
4351
4352
4353
4358
4359
4360
4361
4362
4363
4368
4369
4370
4371
4372
4373
4378
4379
4380
4381
4382
4383
4388
4389
4390
4391
4392
4393
4394
4397
4398
4399
4400
4401
4402
4403
4408
4409
4410
4411
4412
4413
4418
4419
4420
4421
4422
4423
4428
4429
4430
4431
4432
4433
4438
4439
4440
4441
4442
4443
4448
4449
4450
4451
4452
4453
4454
4455
4456
4457
4458
4459
4460
4461
4462
4463
4464
4465
4466
4467
4468
4469
4470
4471
4472
4473
4474
4475
4476
4477
4478
4479
4480
4481
4482
4483
4484
4485
4486
4487
4488
4489
4490
4491
4492
4493
4494
4495
4496
4497
4498
4499
4500
4501
4502
4503
4504
4505
4506
4507
4508
4509
4510
4511
4512
4513
4514
4515
4516
4517
4518
4519
4520
4521
4522
4523
4524
4525
4526
4527
4528
4529
4530
4531
4532
4533
4534
4535
4536
4537
4538
4539
4540
4541
4542
4543
4544
4545
4546
4547
4548
4549
4550
4551
4552
4553
4558
4559
4560
4561
4562
4563
4568
4569
4570
4571
4572
4573
4578
4579
4580
4581
4582
4583
4588
4589
4590
4591
4592
4593
4598
4599
4600
4601
4602
4603
4608
4609
4610
4611
4612
4619
4620
4621
4622
4629
4630
4631
4632
4633
4638
4639
4640
4641
4642
4643
4644
4647
4648
4649
4650
4651
4652
4653
4654
4655
4656
4657
4658
4659
4660
4661
4662
4663
4664
4665
4666
4667
4668
4669
4670
4671
4672
4673
4674
4675
4676
4677
4678
4679
4680
4681
4682
4683
4684
4685
4686
4687
4688
4689
4690
4691
4692
4693
4694
4695
4696
4697
4698
4699
4700
4701
4702
4703
4704
4705
4706
4707
4708
4709
4710
4711
4712
4713
4714
4715
4716
4717
4718
4719
4720
4721
4722
4723
4724
4725
4726
4727
4728
4729
4730
4731
4732
4733
4734
4735
4736
4737
4738
4739
4740
4741
4742
4743
4744
4745
4746
4747
4748
4749
4750
4751
4752
4753
4754
4757
4758
4759
4760
4761
4762
4763
4768
4769
4770
4771
4772
4779
4780
4781
4782
4789
4790
4791
4792
4793
4798
4799
4800
4801
4802
4809
4810
4811
4812
4819
4820
4821
4822
4829
4830
4831
4832
4833
4838
4839
4840
4841
4842
4843
4844
4845
4846
4847
4848
4849
4850
4851
4852
4853
4854
4855
4856
4857
4858
4859
4860
4861
4862
4863
4864
4865
4866
4867
4868
4869
4870
4871
4872
4873
4874
4875
4876
4877
4878
4879
4880
4881
4882
4883
4884
4885
4886
4887
4888
4889
4890
4891
4892
4893
4894
4895
4896
4897
4898
4899
4900
4901
4902
4903
4904
4905
4906
4907
4908
4909
4910
4911
4912
4913
4914
4915
4916
4917
4918
4919
4920
4921
4922
4923
4924
4925
4926
4927
4928
4929
4930
4931
4932
4933
4934
4935
4936
4937
4938
4939
4940
4941
4942
4943
4944
4945
4946
4947
4948
4949
4950
4951
4952
4953
4954
4955
4956
4957
4958
4959
4960
4961
4962
4963
4968
4969
4970
4971
4972
4979
4980
4981
4982
4989
4990
4991
4992
4999
5000
5001
5002
5009
5010
5011
5012
5019
5020
5021
5022
5029
5030
5031
5032
5033
5034
5037
5038
5039
5040
5041
5042
5043
5044
5045
5046
5047
5048
5049
5050
5051
5052
5053
5054
5055
5056
5057
5058
5059
5060
5061
5062
5063
5064
5065
5066
5067
5068
5069
5070
5071
5072
5073
5074
5075
5076
5077
5078
5079
5080
5081
5082
5083
5084
5085
5086
5087
5088
5089
5090
5091
5092
5093
5094
5095
5096
5097
5098
5099
5100
5101
5102
5103
5104
5105
5106
5107
5108
5109
5110
5111
5112
5113
5114
5115
5116
5117
5118
5119
5120
5121
5122
5123
5124
5125
5126
5127
5128
5129
5130
5131
5132
5133
5134
5135
5136
5137
5138
5139
5140
5141
5142
5143
5144
5145
5146
5147
5148
5149
5150
5151
5152
5153
5154
5155
5156
5157
5158
5159
5160
5161
5162
5163
5164
5167
5168
5169
5170
5171
5172
5179
5180
5181
5182
5189
5190
5191
5192
5199
5200
5201
5210
5211
5220
5221
5222
5223
5228
5229
5230
5231
5232
5233
5234
5235
5236
5237
5238
5239
5240
5241
5242
5243
5244
5245
5246
5247
5248
5249
5250
5251
5252
5253
5254
5255
5256
5257
5258
5259
5260
5261
5262
5263
5264
5265
5266
5267
5268
5269
5270
5271
5272
5273
5274
5275
5276
5277
5278
5279
5280
5281
5282
5283
5284
5285
5286
5287
5288
5289
5290
5291
5292
5293
5294
5295
5296
5297
5298
5299
5300
5301
5302
5303
5304
5305
5306
5307
5308
5309
5310
5311
5312
5313
5314
5315
5316
5317
5318
5319
5320
5321
5322
5323
5324
5325
5326
5327
5328
5329
5330
5331
5332
5333
5334
5335
5336
5337
5338
5339
5340
5341
5342
5343
5344
5345
5346
5347
5348
5349
5350
5351
5352
5353
5354
5355
5356
5357
5358
5359
5360
5361
5362
5363
5364
5365
5366
5367
5368
5369
5370
5371
5372
5373
5378
5379
5380
5381
5390
5391
5400
5411
5420
5421
5422
5423
5428
5429
5430
5431
5432
5433
5434
5435
5436
5437
5438
5439
5440
5441
5442
5443
5444
5445
5446
5447
5448
5449
5450
5451
5452
5453
5454
5455
5456
5457
5458
5459
5460
5461
5462
5463
5464
5465
5466
5467
5468
5469
5470
5471
5472
5473
5474
5475
5476
5477
5478
5479
5480
5481
5482
5483
5484
5485
5486
5487
5488
5489
5490
5491
5492
5493
5494
5495
5496
5497
5498
5499
5500
5501
5502
5503
5504
5505
5506
5507
5508
5509
5510
5511
5512
5513
5514
5515
5516
5517
5518
5519
5520
5521
5522
5523
5524
5525
5526
5527
5528
5529
5530
5531
5532
5533
5534
5535
5536
5537
5538
5539
5540
5541
5542
5543
5544
5545
5546
5547
5548
5549
5550
5551
5552
5553
5554
5555
5556
5557
5558
5559
5560
5561
5562
5563
5564
5565
5566
5567
5568
5569
5570
5571
5572
5573
5578
5579
5580
5581
5590
5621
5622
5629
5630
5631
5632
5633
5634
5635
5636
5637
5638
5639
5640
5641
5642
5643
5644
5645
5646
5647
5648
5649
5650
5651
5652
5653
5654
5655
5656
5657
5658
5659
5660
5661
5662
5663
5664
5665
5666
5667
5668
5669
5670
5671
5672
5673
5674
5675
5676
5677
5678
5679
5680
5681
5682
5683
5684
5685
5686
5687
5688
5689
5690
5691
5692
5693
5694
5695
5696
5697
5698
5699
5700
5701
5702
5703
5704
5705
5706
5707
5708
5709
5710
5711
5712
5713
5714
5715
5716
5717
5718
5719
5720
5721
5722
5723
5724
5725
5726
5727
5728
5729
5730
5731
5732
5733
5734
5735
5736
5737
5738
5739
5740
5741
5742
5743
5744
5745
5746
5747
5748
5749
5750
5751
5752
5753
5754
5755
5756
5757
5758
5759
5760
5761
5762
5763
5764
5765
5766
5767
5768
5769
5770
5771
5772
5779
5780
5821
5822
5829
5830
5831
5832
5833
5834
5835
5836
5837
5838
5839
5840
5841
5842
5843
5844
5845
5846
5847
5848
5849
5850
5851
5852
5853
5854
5855
5856
5857
5858
5859
5860
5861
5862
5863
5864
5865
5866
5867
5868
5869
5870
5871
5872
5873
5874
5875
5876
5877
5878
5879
5880
5881
5882
5883
5884
5885
5886
5887
5888
5889
5890
5891
5892
5893
5894
5895
5896
5897
5898
5899
5900
5901
5902
5903
5904
5905
5906
5907
5908
5909
5910
5911
5912
5913
5914
5915
5916
5917
5918
5919
5920
5921
5922
5923
5924
5925
5926
5927
5928
5929
5930
5931
5932
5933
5934
5935
5936
5937
5938
5939
5940
5941
5942
5943
5944
5945
5946
5947
5948
5949
5950
5951
5952
5953
5954
5955
5956
5957
5958
5959
5960
5961
5962
5963
5964
5965
5966
5967
5968
5969
5970
5971
5972
5979
5980
*Elset, elset=ss
65
66
73
74
75
76
77
78
82
83
84
85
86
87
88
89
91
92
93
94
95
96
97
98
99
100
101
102
103
104
105
106
107
108
109
110
112
113
114
115
116
117
118
119
123
124
125
126
127
128
135
136
265
266
273
274
275
276
277
278
282
283
284
285
286
287
288
289
292
293
294
295
296
297
298
299
302
303
304
305
306
307
308
309
312
313
314
315
316
317
318
319
323
324
325
326
327
328
335
336
465
466
474
475
476
477
483
484
485
486
487
488
492
493
494
495
496
497
498
499
502
503
504
505
506
507
508
509
513
514
515
516
517
518
524
525
526
527
535
536
665
666
674
675
676
677
683
684
685
686
687
688
693
694
695
696
697
698
703
704
705
706
707
708
713
714
715
716
717
718
724
725
726
727
735
736
864
865
866
867
874
875
876
877
884
885
886
887
894
895
896
897
904
905
906
907
914
915
916
917
924
925
926
927
934
935
936
937
1055
1056
1064
1065
1066
1067
1074
1075
1076
1077
1084
1085
1086
1087
1094
1095
1096
1097
1104
1105
1106
1107
1114
1115
1116
1117
1124
1125
1126
1127
1134
1135
1136
1137
1145
1146
1255
1256
1264
1265
1266
1267
1274
1275
1276
1277
1284
1285
1286
1287
1294
1295
1296
1297
1304
1305
1306
1307
1314
1315
1316
1317
1324
1325
1326
1327
1334
1335
1336
1337
1345
1346
1454
1455
1456
1457
1464
1465
1466
1467
1474
1475
1476
1477
1484
1485
1486
1487
1494
1495
1496
1497
1504
1505
1506
1507
1514
1515
1516
1517
1524
1525
1526
1527
1534
1535
1536
1537
1544
1545
1546
1547
1654
1655
1656
1657
1664
1665
1666
1667
1674
1675
1676
1677
1684
1685
1686
1687
1694
1695
1696
1697
1704
1705
1706
1707
1714
1715
1716
1717
1724
1725
1726
1727
1734
1735
1736
1737
1744
1745
1746
1747
1845
1846
1854
1855
1856
1857
1864
1865
1866
1867
1874
1875
1876
1877
1884
1885
1886
1887
1895
1896
1905
1906
1914
1915
1916
1917
1924
1925
1926
1927
1934
1935
1936
1937
1944
1945
1946
1947
1955
1956
2045
2046
2054
2055
2056
2057
2064
2065
2066
2067
2074
2075
2076
2077
2084
2085
2086
2087
2114
2115
2116
2117
2124
2125
2126
2127
2134
2135
2136
2137
2144
2145
2146
2147
2155
2156
2244
2245
2246
2247
2254
2255
2256
2257
2264
2265
2266
2267
2274
2275
2276
2277
2285
2286
2315
2316
2324
2325
2326
2327
2334
2335
2336
2337
2344
2345
2346
2347
2354
2355
2356
2357
2435
2436
2444
2445
2446
2447
2454
2455
2456
2457
2464
2465
2466
2467
2474
2475
2476
2477
2524
2525
2526
2527
2534
2535
2536
2537
2544
2545
2546
2547
2554
2555
2556
2557
2565
2566
2635
2636
2644
2645
2646
2647
2654
2655
2656
2657
2664
2665
2666
2667
2674
2675
2676
2677
2724
2725
2726
2727
2734
2735
2736
2737
2744
2745
2746
2747
2754
2755
2756
2757
2765
2766
2834
2835
2836
2837
2844
2845
2846
2847
2854
2855
2856
2857
2864
2865
2866
2867
2875
2876
2925
2926
2934
2935
2936
2937
2944
2945
2946
2947
2954
2955
2956
2957
2964
2965
2966
2967
3025
3026
3034
3035
3036
3037
3044
3045
3046
3047
3054
3055
3056
3057
3064
3065
3066
3067
3134
3135
3136
3137
3144
3145
3146
3147
3154
3155
3156
3157
3164
3165
3166
3167
3175
3176
3225
3226
3234
3235
3236
3237
3244
3245
3246
3247
3254
3255
3256
3257
3265
3266
3335
3336
3344
3345
3346
3347
3354
3355
3356
3357
3364
3365
3366
3367
3375
3376
3424
3425
3426
3427
3434
3435
3436
3437
3444
3445
3446
3447
3454
3455
3456
3457
3465
3466
3535
3536
3544
3545
3546
3547
3554
3555
3556
3557
3564
3565
3566
3567
3574
3575
3576
3577
3615
3616
3624
3625
3626
3627
3634
3635
3636
3637
3644
3645
3646
3647
3654
3655
3656
3657
3744
3745
3746
3747
3754
3755
3756
3757
3764
3765
3766
3767
3774
3775
3776
3777
3785
3786
3814
3815
3816
3817
3824
3825
3826
3827
3834
3835
3836
3837
3844
3845
3846
3847
3854
3855
3856
3857
3944
3945
3946
3947
3954
3955
3956
3957
3964
3965
3966
3967
3974
3975
3976
3977
3984
3985
3986
3987
4005
4006
4014
4015
4016
4017
4024
4025
4026
4027
4034
4035
4036
4037
4044
4045
4046
4047
4055
4056
4145
4146
4154
4155
4156
4157
4164
4165
4166
4167
4174
4175
4176
4177
4184
4185
4186
4187
4195
4196
4205
4206
4214
4215
4216
4217
4224
4225
4226
4227
4234
4235
4236
4237
4244
4245
4246
4247
4354
4355
4356
4357
4364
4365
4366
4367
4374
4375
4376
4377
4384
4385
4386
4387
4395
4396
4404
4405
4406
4407
4414
4415
4416
4417
4424
4425
4426
4427
4434
4435
4436
4437
4444
4445
4446
4447
4554
4555
4556
4557
4564
4565
4566
4567
4574
4575
4576
4577
4584
4585
4586
4587
4594
4595
4596
4597
4604
4605
4606
4607
4613
4614
4615
4616
4617
4618
4623
4624
4625
4626
4627
4628
4634
4635
4636
4637
4645
4646
4755
4756
4764
4765
4766
4767
4773
4774
4775
4776
4777
4778
4783
4784
4785
4786
4787
4788
4794
4795
4796
4797
4803
4804
4805
4806
4807
4808
4813
4814
4815
4816
4817
4818
4823
4824
4825
4826
4827
4828
4834
4835
4836
4837
4964
4965
4966
4967
4973
4974
4975
4976
4977
4978
4983
4984
4985
4986
4987
4988
4993
4994
4995
4996
4997
4998
5003
5004
5005
5006
5007
5008
5013
5014
5015
5016
5017
5018
5023
5024
5025
5026
5027
5028
5035
5036
5165
5166
5173
5174
5175
5176
5177
5178
5183
5184
5185
5186
5187
5188
5193
5194
5195
5196
5197
5198
5202
5203
5204
5205
5206
5207
5208
5209
5212
5213
5214
5215
5216
5217
5218
5219
5224
5225
5226
5227
5374
5375
5376
5377
5382
5383
5384
5385
5386
5387
5388
5389
5392
5393
5394
5395
5396
5397
5398
5399
5401
5402
5403
5404
5405
5406
5407
5408
5409
5410
5412
5413
5414
5415
5416
5417
5418
5419
5424
5425
5426
5427
5574
5575
5576
5577
5582
5583
5584
5585
5586
5587
5588
5589
5591
5592
5593
5594
5595
5596
5597
5598
5599
5600
5601
5602
5603
5604
5605
5606
5607
5608
5609
5610
5611
5612
5613
5614
5615
5616
5617
5618
5619
5620
5623
5624
5625
5626
5627
5628
5773
5774
5775
5776
5777
5778
5781
5782
5783
5784
5785
5786
5787
5788
5789
5790
5791
5792
5793
5794
5795
5796
5797
5798
5799
5800
5801
5802
5803
5804
5805
5806
5807
5808
5809
5810
5811
5812
5813
5814
5815
5816
5817
5818
5819
5820
5823
5824
5825
5826
5827
5828
5973
5974
5975
5976
5977
5978
5981
5982
5983
5984
5985
5986
5987
5988
5989
5990
5991
5992
5993
5994
5995
5996
5997
5998
5999
6000
** Section: sldSec
*Solid Section, elset=ss, material=Material01
,
** Section: voidSec
*Solid Section, elset=vs, material=Material00
,
*End Part
**  
**
** ASSEMBLY
**
*Assembly, name=Assembly
**  
*Instance, name=Part-1-1, part=Part-1
*End Instance
**  
*Nset, nset=Set-1, instance=Part-1-1
 116,
*Nset, nset=Set-2, instance=Part-1-1, generate
 6931,  7161,     1
*Elset, elset=Set-2, instance=Part-1-1, generate
 5801,  6000,     1
*End Assembly
** 
** MATERIALS
** 
*Material, name=Material00
*Density
 1.16e-09,
*Elastic
 2.1e-06, 0.41
*Material, name=Material01
*Density
 1.16e-09,
*Elastic
2100., 0.41
** ----------------------------------------------------------------
** 
** STEP: Step-1
** 
*Step, name=Step-1, nlgeom=NO
*Static
1., 1., 1e-05, 1.
** 
** BOUNDARY CONDITIONS
** 
** Name: BC-1 Type: Displacement/Rotation
*Boundary
Set-2, 1, 1
Set-2, 2, 2
Set-2, 3, 3
Set-2, 4, 4
Set-2, 5, 5
Set-2, 6, 6
** 
** LOADS
** 
** Name: Load-1   Type: Concentrated force
*Cload
Set-1, 2, -10.
** 
** OUTPUT REQUESTS
** 
*Restart, write, frequency=0
** 
** FIELD OUTPUT: SEDensity
** 
*Output, field
*Node Output
U, 
*Element Output, directions=YES
ELEDEN, EVOL, S
** 
** FIELD OUTPUT: F-Output-1
** 
*Output, field, variable=PRESELECT
** 
** HISTORY OUTPUT: ExtWork
** 
*Output, history
*Energy Output
ALLWK, 
** 
** HISTORY OUTPUT: H-Output-1
** 
*Output, history, variable=PRESELECT
*End Step
