*Heading
** Job name: Job-2 Model name: Model-1
** Generated by: Abaqus/CAE 2021
*Preprint, echo=NO, model=NO, history=NO, contact=NO
**
** PARTS
**
*Part, name=Part-1
*Node
      1,          30.,          20.,           5.
      2,          30.,          10.,           5.
      3,          30.,          10.,           0.
      4,          30.,          20.,           0.
      5,           0.,           0.,           0.
      6,           0.,          20.,           0.
      7,          30.,           0.,           0.
      8,           0.,           0.,          10.
      9,           0.,          20.,          10.
     10,          30.,          20.,          10.
     11,          30.,          10.,          10.
     12,          30.,           0.,          10.
     13,          30.,   18.5714283,           5.
     14,          30.,   17.1428566,           5.
     15,          30.,   15.7142859,           5.
     16,          30.,   14.2857141,           5.
     17,          30.,   12.8571424,           5.
     18,          30.,   11.4285717,           5.
     19,          30.,          10.,   3.33333325
     20,          30.,          10.,   1.66666663
     21,          30.,   11.4285717,           0.
     22,          30.,   12.8571424,           0.
     23,          30.,   14.2857141,           0.
     24,          30.,   15.7142859,           0.
     25,          30.,   17.1428566,           0.
     26,          30.,   18.5714283,           0.
     27,          30.,          20.,   1.66666663
     28,          30.,          20.,   3.33333325
     29,           0.,   1.42857146,           0.
     30,           0.,   2.85714293,           0.
     31,           0.,   4.28571415,           0.
     32,           0.,   5.71428585,           0.
     33,           0.,   7.14285707,           0.
     34,           0.,    8.5714283,           0.
     35,           0.,          10.,           0.
     36,           0.,   11.4285717,           0.
     37,           0.,   12.8571424,           0.
     38,           0.,   14.2857141,           0.
     39,           0.,   15.7142859,           0.
     40,           0.,   17.1428566,           0.
     41,           0.,   18.5714283,           0.
     42,          1.5,          20.,           0.
     43,           3.,          20.,           0.
     44,          4.5,          20.,           0.
     45,           6.,          20.,           0.
     46,          7.5,          20.,           0.
     47,           9.,          20.,           0.
     48,         10.5,          20.,           0.
     49,          12.,          20.,           0.
     50,         13.5,          20.,           0.
     51,          15.,          20.,           0.
     52,         16.5,          20.,           0.
     53,          18.,          20.,           0.
     54,         19.5,          20.,           0.
     55,          21.,          20.,           0.
     56,         22.5,          20.,           0.
     57,          24.,          20.,           0.
     58,         25.5,          20.,           0.
     59,          27.,          20.,           0.
     60,         28.5,          20.,           0.
     61,          30.,    8.5714283,           0.
     62,          30.,   7.14285707,           0.
     63,          30.,   5.71428585,           0.
     64,          30.,   4.28571415,           0.
     65,          30.,   2.85714293,           0.
     66,          30.,   1.42857146,           0.
     67,         28.5,           0.,           0.
     68,          27.,           0.,           0.
     69,         25.5,           0.,           0.
     70,          24.,           0.,           0.
     71,         22.5,           0.,           0.
     72,          21.,           0.,           0.
     73,         19.5,           0.,           0.
     74,          18.,           0.,           0.
     75,         16.5,           0.,           0.
     76,          15.,           0.,           0.
     77,         13.5,           0.,           0.
     78,          12.,           0.,           0.
     79,         10.5,           0.,           0.
     80,           9.,           0.,           0.
     81,          7.5,           0.,           0.
     82,           6.,           0.,           0.
     83,          4.5,           0.,           0.
     84,           3.,           0.,           0.
     85,          1.5,           0.,           0.
     86,           0.,           0.,   1.42857146
     87,           0.,           0.,   2.85714293
     88,           0.,           0.,   4.28571415
     89,           0.,           0.,   5.71428585
     90,           0.,           0.,   7.14285707
     91,           0.,           0.,    8.5714283
     92,           0.,   1.42857146,          10.
     93,           0.,   2.85714293,          10.
     94,           0.,   4.28571415,          10.
     95,           0.,   5.71428585,          10.
     96,           0.,   7.14285707,          10.
     97,           0.,    8.5714283,          10.
     98,           0.,          10.,          10.
     99,           0.,   11.4285717,          10.
    100,           0.,   12.8571424,          10.
    101,           0.,   14.2857141,          10.
    102,           0.,   15.7142859,          10.
    103,           0.,   17.1428566,          10.
    104,           0.,   18.5714283,          10.
    105,           0.,          20.,    8.5714283
    106,           0.,          20.,   7.14285707
    107,           0.,          20.,   5.71428585
    108,           0.,          20.,   4.28571415
    109,           0.,          20.,   2.85714293
    110,           0.,          20.,   1.42857146
    111,          1.5,          20.,          10.
    112,           3.,          20.,          10.
    113,          4.5,          20.,          10.
    114,           6.,          20.,          10.
    115,          7.5,          20.,          10.
    116,           9.,          20.,          10.
    117,         10.5,          20.,          10.
    118,          12.,          20.,          10.
    119,         13.5,          20.,          10.
    120,          15.,          20.,          10.
    121,         16.5,          20.,          10.
    122,          18.,          20.,          10.
    123,         19.5,          20.,          10.
    124,          21.,          20.,          10.
    125,         22.5,          20.,          10.
    126,          24.,          20.,          10.
    127,         25.5,          20.,          10.
    128,          27.,          20.,          10.
    129,         28.5,          20.,          10.
    130,          30.,          20.,         8.75
    131,          30.,          20.,          7.5
    132,          30.,          20.,         6.25
    133,          30.,   18.5714283,          10.
    134,          30.,   17.1428566,          10.
    135,          30.,   15.7142859,          10.
    136,          30.,   14.2857141,          10.
    137,          30.,   12.8571424,          10.
    138,          30.,   11.4285717,          10.
    139,          30.,          10.,         8.75
    140,          30.,          10.,          7.5
    141,          30.,          10.,         6.25
    142,          30.,    8.5714283,          10.
    143,          30.,   7.14285707,          10.
    144,          30.,   5.71428585,          10.
    145,          30.,   4.28571415,          10.
    146,          30.,   2.85714293,          10.
    147,          30.,   1.42857146,          10.
    148,          30.,           0.,    8.5714283
    149,          30.,           0.,   7.14285707
    150,          30.,           0.,   5.71428585
    151,          30.,           0.,   4.28571415
    152,          30.,           0.,   2.85714293
    153,          30.,           0.,   1.42857146
    154,         28.5,           0.,          10.
    155,          27.,           0.,          10.
    156,         25.5,           0.,          10.
    157,          24.,           0.,          10.
    158,         22.5,           0.,          10.
    159,          21.,           0.,          10.
    160,         19.5,           0.,          10.
    161,          18.,           0.,          10.
    162,         16.5,           0.,          10.
    163,          15.,           0.,          10.
    164,         13.5,           0.,          10.
    165,          12.,           0.,          10.
    166,         10.5,           0.,          10.
    167,           9.,           0.,          10.
    168,          7.5,           0.,          10.
    169,           6.,           0.,          10.
    170,          4.5,           0.,          10.
    171,           3.,           0.,          10.
    172,          1.5,           0.,          10.
    173,          30.,   18.5714283,   3.33333325
    174,          30.,   17.1428566,   3.33333325
    175,          30.,   15.7142859,   3.33333325
    176,          30.,   14.2857141,   3.33333325
    177,          30.,   12.8571424,   3.33333325
    178,          30.,   11.4285717,   3.33333325
    179,          30.,   18.5714283,   1.66666663
    180,          30.,   17.1428566,   1.66666663
    181,          30.,   15.7142859,   1.66666663
    182,          30.,   14.2857141,   1.66666663
    183,          30.,   12.8571424,   1.66666663
    184,          30.,   11.4285717,   1.66666663
    185,          1.5,   1.42857146,           0.
    186,          1.5,   2.85714293,           0.
    187,          1.5,   4.28571415,           0.
    188,          1.5,   5.71428585,           0.
    189,          1.5,   7.14285707,           0.
    190,          1.5,    8.5714283,           0.
    191,          1.5,          10.,           0.
    192,          1.5,   11.4285717,           0.
    193,          1.5,   12.8571424,           0.
    194,          1.5,   14.2857141,           0.
    195,          1.5,   15.7142859,           0.
    196,          1.5,   17.1428566,           0.
    197,          1.5,   18.5714283,           0.
    198,           3.,   1.42857146,           0.
    199,           3.,   2.85714293,           0.
    200,           3.,   4.28571415,           0.
    201,           3.,   5.71428585,           0.
    202,           3.,   7.14285707,           0.
    203,           3.,    8.5714283,           0.
    204,           3.,          10.,           0.
    205,           3.,   11.4285717,           0.
    206,           3.,   12.8571424,           0.
    207,           3.,   14.2857141,           0.
    208,           3.,   15.7142859,           0.
    209,           3.,   17.1428566,           0.
    210,           3.,   18.5714283,           0.
    211,          4.5,   1.42857146,           0.
    212,          4.5,   2.85714293,           0.
    213,          4.5,   4.28571415,           0.
    214,          4.5,   5.71428585,           0.
    215,          4.5,   7.14285707,           0.
    216,          4.5,    8.5714283,           0.
    217,          4.5,          10.,           0.
    218,          4.5,   11.4285717,           0.
    219,          4.5,   12.8571424,           0.
    220,          4.5,   14.2857141,           0.
    221,          4.5,   15.7142859,           0.
    222,          4.5,   17.1428566,           0.
    223,          4.5,   18.5714283,           0.
    224,           6.,   1.42857146,           0.
    225,           6.,   2.85714293,           0.
    226,           6.,   4.28571415,           0.
    227,           6.,   5.71428585,           0.
    228,           6.,   7.14285707,           0.
    229,           6.,    8.5714283,           0.
    230,           6.,          10.,           0.
    231,           6.,   11.4285717,           0.
    232,           6.,   12.8571424,           0.
    233,           6.,   14.2857141,           0.
    234,           6.,   15.7142859,           0.
    235,           6.,   17.1428566,           0.
    236,           6.,   18.5714283,           0.
    237,          7.5,   1.42857146,           0.
    238,          7.5,   2.85714293,           0.
    239,          7.5,   4.28571415,           0.
    240,          7.5,   5.71428585,           0.
    241,          7.5,   7.14285707,           0.
    242,          7.5,    8.5714283,           0.
    243,          7.5,          10.,           0.
    244,          7.5,   11.4285717,           0.
    245,          7.5,   12.8571424,           0.
    246,          7.5,   14.2857141,           0.
    247,          7.5,   15.7142859,           0.
    248,          7.5,   17.1428566,           0.
    249,          7.5,   18.5714283,           0.
    250,           9.,   1.42857146,           0.
    251,           9.,   2.85714293,           0.
    252,           9.,   4.28571415,           0.
    253,           9.,   5.71428585,           0.
    254,           9.,   7.14285707,           0.
    255,           9.,    8.5714283,           0.
    256,           9.,          10.,           0.
    257,           9.,   11.4285717,           0.
    258,           9.,   12.8571424,           0.
    259,           9.,   14.2857141,           0.
    260,           9.,   15.7142859,           0.
    261,           9.,   17.1428566,           0.
    262,           9.,   18.5714283,           0.
    263,         10.5,   1.42857146,           0.
    264,         10.5,   2.85714293,           0.
    265,         10.5,   4.28571415,           0.
    266,         10.5,   5.71428585,           0.
    267,         10.5,   7.14285707,           0.
    268,         10.5,    8.5714283,           0.
    269,         10.5,          10.,           0.
    270,         10.5,   11.4285717,           0.
    271,         10.5,   12.8571424,           0.
    272,         10.5,   14.2857141,           0.
    273,         10.5,   15.7142859,           0.
    274,         10.5,   17.1428566,           0.
    275,         10.5,   18.5714283,           0.
    276,          12.,   1.42857146,           0.
    277,          12.,   2.85714293,           0.
    278,          12.,   4.28571415,           0.
    279,          12.,   5.71428585,           0.
    280,          12.,   7.14285707,           0.
    281,          12.,    8.5714283,           0.
    282,          12.,          10.,           0.
    283,          12.,   11.4285717,           0.
    284,          12.,   12.8571424,           0.
    285,          12.,   14.2857141,           0.
    286,          12.,   15.7142859,           0.
    287,          12.,   17.1428566,           0.
    288,          12.,   18.5714283,           0.
    289,         13.5,   1.42857146,           0.
    290,         13.5,   2.85714293,           0.
    291,         13.5,   4.28571415,           0.
    292,         13.5,   5.71428585,           0.
    293,         13.5,   7.14285707,           0.
    294,         13.5,    8.5714283,           0.
    295,         13.5,          10.,           0.
    296,         13.5,   11.4285717,           0.
    297,         13.5,   12.8571424,           0.
    298,         13.5,   14.2857141,           0.
    299,         13.5,   15.7142859,           0.
    300,         13.5,   17.1428566,           0.
    301,         13.5,   18.5714283,           0.
    302,          15.,   1.42857146,           0.
    303,          15.,   2.85714293,           0.
    304,          15.,   4.28571415,           0.
    305,          15.,   5.71428585,           0.
    306,          15.,   7.14285707,           0.
    307,          15.,    8.5714283,           0.
    308,          15.,          10.,           0.
    309,          15.,   11.4285717,           0.
    310,          15.,   12.8571424,           0.
    311,          15.,   14.2857141,           0.
    312,          15.,   15.7142859,           0.
    313,          15.,   17.1428566,           0.
    314,          15.,   18.5714283,           0.
    315,         16.5,   1.42857146,           0.
    316,         16.5,   2.85714293,           0.
    317,         16.5,   4.28571415,           0.
    318,         16.5,   5.71428585,           0.
    319,         16.5,   7.14285707,           0.
    320,         16.5,    8.5714283,           0.
    321,         16.5,          10.,           0.
    322,         16.5,   11.4285717,           0.
    323,         16.5,   12.8571424,           0.
    324,         16.5,   14.2857141,           0.
    325,         16.5,   15.7142859,           0.
    326,         16.5,   17.1428566,           0.
    327,         16.5,   18.5714283,           0.
    328,          18.,   1.42857146,           0.
    329,          18.,   2.85714293,           0.
    330,          18.,   4.28571415,           0.
    331,          18.,   5.71428585,           0.
    332,          18.,   7.14285707,           0.
    333,          18.,    8.5714283,           0.
    334,          18.,          10.,           0.
    335,          18.,   11.4285717,           0.
    336,          18.,   12.8571424,           0.
    337,          18.,   14.2857141,           0.
    338,          18.,   15.7142859,           0.
    339,          18.,   17.1428566,           0.
    340,          18.,   18.5714283,           0.
    341,         19.5,   1.42857146,           0.
    342,         19.5,   2.85714293,           0.
    343,         19.5,   4.28571415,           0.
    344,         19.5,   5.71428585,           0.
    345,         19.5,   7.14285707,           0.
    346,         19.5,    8.5714283,           0.
    347,         19.5,          10.,           0.
    348,         19.5,   11.4285717,           0.
    349,         19.5,   12.8571424,           0.
    350,         19.5,   14.2857141,           0.
    351,         19.5,   15.7142859,           0.
    352,         19.5,   17.1428566,           0.
    353,         19.5,   18.5714283,           0.
    354,          21.,   1.42857146,           0.
    355,          21.,   2.85714293,           0.
    356,          21.,   4.28571415,           0.
    357,          21.,   5.71428585,           0.
    358,          21.,   7.14285707,           0.
    359,          21.,    8.5714283,           0.
    360,          21.,          10.,           0.
    361,          21.,   11.4285717,           0.
    362,          21.,   12.8571424,           0.
    363,          21.,   14.2857141,           0.
    364,          21.,   15.7142859,           0.
    365,          21.,   17.1428566,           0.
    366,          21.,   18.5714283,           0.
    367,         22.5,   1.42857146,           0.
    368,         22.5,   2.85714293,           0.
    369,         22.5,   4.28571415,           0.
    370,         22.5,   5.71428585,           0.
    371,         22.5,   7.14285707,           0.
    372,         22.5,    8.5714283,           0.
    373,         22.5,          10.,           0.
    374,         22.5,   11.4285717,           0.
    375,         22.5,   12.8571424,           0.
    376,         22.5,   14.2857141,           0.
    377,         22.5,   15.7142859,           0.
    378,         22.5,   17.1428566,           0.
    379,         22.5,   18.5714283,           0.
    380,          24.,   1.42857146,           0.
    381,          24.,   2.85714293,           0.
    382,          24.,   4.28571415,           0.
    383,          24.,   5.71428585,           0.
    384,          24.,   7.14285707,           0.
    385,          24.,    8.5714283,           0.
    386,          24.,          10.,           0.
    387,          24.,   11.4285717,           0.
    388,          24.,   12.8571424,           0.
    389,          24.,   14.2857141,           0.
    390,          24.,   15.7142859,           0.
    391,          24.,   17.1428566,           0.
    392,          24.,   18.5714283,           0.
    393,         25.5,   1.42857146,           0.
    394,         25.5,   2.85714293,           0.
    395,         25.5,   4.28571415,           0.
    396,         25.5,   5.71428585,           0.
    397,         25.5,   7.14285707,           0.
    398,         25.5,    8.5714283,           0.
    399,         25.5,          10.,           0.
    400,         25.5,   11.4285717,           0.
    401,         25.5,   12.8571424,           0.
    402,         25.5,   14.2857141,           0.
    403,         25.5,   15.7142859,           0.
    404,         25.5,   17.1428566,           0.
    405,         25.5,   18.5714283,           0.
    406,          27.,   1.42857146,           0.
    407,          27.,   2.85714293,           0.
    408,          27.,   4.28571415,           0.
    409,          27.,   5.71428585,           0.
    410,          27.,   7.14285707,           0.
    411,          27.,    8.5714283,           0.
    412,          27.,          10.,           0.
    413,          27.,   11.4285717,           0.
    414,          27.,   12.8571424,           0.
    415,          27.,   14.2857141,           0.
    416,          27.,   15.7142859,           0.
    417,          27.,   17.1428566,           0.
    418,          27.,   18.5714283,           0.
    419,         28.5,   1.42857146,           0.
    420,         28.5,   2.85714293,           0.
    421,         28.5,   4.28571415,           0.
    422,         28.5,   5.71428585,           0.
    423,         28.5,   7.14285707,           0.
    424,         28.5,    8.5714283,           0.
    425,         28.5,          10.,           0.
    426,         28.5,   11.4285717,           0.
    427,         28.5,   12.8571424,           0.
    428,         28.5,   14.2857141,           0.
    429,         28.5,   15.7142859,           0.
    430,         28.5,   17.1428566,           0.
    431,         28.5,   18.5714283,           0.
    432,           0.,   1.42857146,   1.42857146
    433,           0.,   1.42857146,   2.85714293
    434,           0.,   1.42857146,   4.28571415
    435,           0.,   1.42857146,   5.71428585
    436,           0.,   1.42857146,   7.14285707
    437,           0.,   1.42857146,    8.5714283
    438,           0.,   2.85714293,   1.42857146
    439,           0.,   2.85714293,   2.85714293
    440,           0.,   2.85714293,   4.28571415
    441,           0.,   2.85714293,   5.71428585
    442,           0.,   2.85714293,   7.14285707
    443,           0.,   2.85714293,    8.5714283
    444,           0.,   4.28571415,   1.42857146
    445,           0.,   4.28571415,   2.85714293
    446,           0.,   4.28571415,   4.28571415
    447,           0.,   4.28571415,   5.71428585
    448,           0.,   4.28571415,   7.14285707
    449,           0.,   4.28571415,    8.5714283
    450,           0.,   5.71428585,   1.42857146
    451,           0.,   5.71428585,   2.85714293
    452,           0.,   5.71428585,   4.28571415
    453,           0.,   5.71428585,   5.71428585
    454,           0.,   5.71428585,   7.14285707
    455,           0.,   5.71428585,    8.5714283
    456,           0.,   7.14285707,   1.42857146
    457,           0.,   7.14285707,   2.85714293
    458,           0.,   7.14285707,   4.28571415
    459,           0.,   7.14285707,   5.71428585
    460,           0.,   7.14285707,   7.14285707
    461,           0.,   7.14285707,    8.5714283
    462,           0.,    8.5714283,   1.42857146
    463,           0.,    8.5714283,   2.85714293
    464,           0.,    8.5714283,   4.28571415
    465,           0.,    8.5714283,   5.71428585
    466,           0.,    8.5714283,   7.14285707
    467,           0.,    8.5714283,    8.5714283
    468,           0.,          10.,   1.42857146
    469,           0.,          10.,   2.85714293
    470,           0.,          10.,   4.28571415
    471,           0.,          10.,   5.71428585
    472,           0.,          10.,   7.14285707
    473,           0.,          10.,    8.5714283
    474,           0.,   11.4285717,   1.42857146
    475,           0.,   11.4285717,   2.85714293
    476,           0.,   11.4285717,   4.28571415
    477,           0.,   11.4285717,   5.71428585
    478,           0.,   11.4285717,   7.14285707
    479,           0.,   11.4285717,    8.5714283
    480,           0.,   12.8571424,   1.42857146
    481,           0.,   12.8571424,   2.85714293
    482,           0.,   12.8571424,   4.28571415
    483,           0.,   12.8571424,   5.71428585
    484,           0.,   12.8571424,   7.14285707
    485,           0.,   12.8571424,    8.5714283
    486,           0.,   14.2857141,   1.42857146
    487,           0.,   14.2857141,   2.85714293
    488,           0.,   14.2857141,   4.28571415
    489,           0.,   14.2857141,   5.71428585
    490,           0.,   14.2857141,   7.14285707
    491,           0.,   14.2857141,    8.5714283
    492,           0.,   15.7142859,   1.42857146
    493,           0.,   15.7142859,   2.85714293
    494,           0.,   15.7142859,   4.28571415
    495,           0.,   15.7142859,   5.71428585
    496,           0.,   15.7142859,   7.14285707
    497,           0.,   15.7142859,    8.5714283
    498,           0.,   17.1428566,   1.42857146
    499,           0.,   17.1428566,   2.85714293
    500,           0.,   17.1428566,   4.28571415
    501,           0.,   17.1428566,   5.71428585
    502,           0.,   17.1428566,   7.14285707
    503,           0.,   17.1428566,    8.5714283
    504,           0.,   18.5714283,   1.42857146
    505,           0.,   18.5714283,   2.85714293
    506,           0.,   18.5714283,   4.28571415
    507,           0.,   18.5714283,   5.71428585
    508,           0.,   18.5714283,   7.14285707
    509,           0.,   18.5714283,    8.5714283
    510,          1.5,          20.,   1.44047618
    511,          1.5,          20.,   2.88095236
    512,          1.5,          20.,   4.32142878
    513,          1.5,          20.,   5.74107122
    514,          1.5,          20.,   7.16071415
    515,          1.5,          20.,   8.58035755
    516,           3.,          20.,    1.4523809
    517,           3.,          20.,   2.90476179
    518,           3.,          20.,   4.35714293
    519,           3.,          20.,   5.76785707
    520,           3.,          20.,   7.17857122
    521,           3.,          20.,   8.58928585
    522,          4.5,          20.,   1.46428573
    523,          4.5,          20.,   2.92857146
    524,          4.5,          20.,   4.39285707
    525,          4.5,          20.,   5.79464293
    526,          4.5,          20.,   7.19642878
    527,          4.5,          20.,   8.59821415
    528,           6.,          20.,   1.47619045
    529,           6.,          20.,    2.9523809
    530,           6.,          20.,   4.42857122
    531,           6.,          20.,   5.82142878
    532,           6.,          20.,   7.21428585
    533,           6.,          20.,   8.60714245
    534,          7.5,          20.,   1.48809528
    535,          7.5,          20.,   2.97619057
    536,          7.5,          20.,   4.46428585
    537,          7.5,          20.,   5.84821415
    538,          7.5,          20.,   7.23214293
    539,          7.5,          20.,    8.6160717
    540,           9.,          20.,          1.5
    541,           9.,          20.,           3.
    542,           9.,          20.,          4.5
    543,           9.,          20.,        5.875
    544,           9.,          20.,         7.25
    545,           9.,          20.,        8.625
    546,         10.5,          20.,   1.51190472
    547,         10.5,          20.,   3.02380943
    548,         10.5,          20.,   4.53571415
    549,         10.5,          20.,   5.90178585
    550,         10.5,          20.,   7.26785707
    551,         10.5,          20.,    8.6339283
    552,          12.,          20.,   1.52380955
    553,          12.,          20.,    3.0476191
    554,          12.,          20.,   4.57142878
    555,          12.,          20.,   5.92857122
    556,          12.,          20.,   7.28571415
    557,          12.,          20.,   8.64285755
    558,         13.5,          20.,   1.53571427
    559,         13.5,          20.,   3.07142854
    560,         13.5,          20.,   4.60714293
    561,         13.5,          20.,   5.95535707
    562,         13.5,          20.,   7.30357122
    563,         13.5,          20.,   8.65178585
    564,          15.,          20.,    1.5476191
    565,          15.,          20.,   3.09523821
    566,          15.,          20.,   4.64285707
    567,          15.,          20.,   5.98214293
    568,          15.,          20.,   7.32142878
    569,          15.,          20.,   8.66071415
    570,         16.5,          20.,   1.55952382
    571,         16.5,          20.,   3.11904764
    572,         16.5,          20.,   4.67857122
    573,         16.5,          20.,   6.00892878
    574,         16.5,          20.,   7.33928585
    575,         16.5,          20.,   8.66964245
    576,          18.,          20.,   1.57142854
    577,          18.,          20.,   3.14285707
    578,          18.,          20.,   4.71428585
    579,          18.,          20.,   6.03571415
    580,          18.,          20.,   7.35714293
    581,          18.,          20.,    8.6785717
    582,         19.5,          20.,   1.58333337
    583,         19.5,          20.,   3.16666675
    584,         19.5,          20.,         4.75
    585,         19.5,          20.,       6.0625
    586,         19.5,          20.,        7.375
    587,         19.5,          20.,       8.6875
    588,          21.,          20.,   1.59523809
    589,          21.,          20.,   3.19047618
    590,          21.,          20.,   4.78571415
    591,          21.,          20.,   6.08928585
    592,          21.,          20.,   7.39285707
    593,          21.,          20.,    8.6964283
    594,         22.5,          20.,   1.60714281
    595,         22.5,          20.,   3.21428561
    596,         22.5,          20.,   4.82142878
    597,         22.5,          20.,   6.11607122
    598,         22.5,          20.,   7.41071415
    599,         22.5,          20.,   8.70535755
    600,          24.,          20.,   1.61904764
    601,          24.,          20.,   3.23809528
    602,          24.,          20.,   4.85714293
    603,          24.,          20.,   6.14285707
    604,          24.,          20.,   7.42857122
    605,          24.,          20.,   8.71428585
    606,         25.5,          20.,   1.63095236
    607,         25.5,          20.,   3.26190472
    608,         25.5,          20.,   4.89285707
    609,         25.5,          20.,   6.16964293
    610,         25.5,          20.,   7.44642878
    611,         25.5,          20.,   8.72321415
    612,          27.,          20.,   1.64285719
    613,          27.,          20.,   3.28571439
    614,          27.,          20.,   4.92857122
    615,          27.,          20.,   6.19642878
    616,          27.,          20.,   7.46428585
    617,          27.,          20.,   8.73214245
    618,         28.5,          20.,   1.65476191
    619,         28.5,          20.,   3.30952382
    620,         28.5,          20.,   4.96428585
    621,         28.5,          20.,   6.22321415
    622,         28.5,          20.,   7.48214293
    623,         28.5,          20.,    8.7410717
    624,          30.,   11.4285717,         6.25
    625,          30.,   12.8571424,         6.25
    626,          30.,   14.2857141,         6.25
    627,          30.,   15.7142859,         6.25
    628,          30.,   17.1428566,         6.25
    629,          30.,   18.5714283,         6.25
    630,          30.,   11.4285717,          7.5
    631,          30.,   12.8571424,          7.5
    632,          30.,   14.2857141,          7.5
    633,          30.,   15.7142859,          7.5
    634,          30.,   17.1428566,          7.5
    635,          30.,   18.5714283,          7.5
    636,          30.,   11.4285717,         8.75
    637,          30.,   12.8571424,         8.75
    638,          30.,   14.2857141,         8.75
    639,          30.,   15.7142859,         8.75
    640,          30.,   17.1428566,         8.75
    641,          30.,   18.5714283,         8.75
    642,          30.,    8.5714283,   8.72449017
    643,          30.,   7.14285707,   8.69897938
    644,          30.,   5.71428585,   8.67346954
    645,          30.,   4.28571415,   8.64795876
    646,          30.,   2.85714293,   8.62244892
    647,          30.,   1.42857146,   8.59693909
    648,          30.,    8.5714283,   7.44897938
    649,          30.,   7.14285707,   7.39795923
    650,          30.,   5.71428585,   7.34693861
    651,          30.,   4.28571415,   7.29591846
    652,          30.,   2.85714293,   7.24489784
    653,          30.,   1.42857146,    7.1938777
    654,          30.,    8.5714283,   6.17346954
    655,          30.,   7.14285707,   6.09693861
    656,          30.,   5.71428585,   6.02040815
    657,          30.,   4.28571415,    5.9438777
    658,          30.,   2.85714293,   5.86734676
    659,          30.,   1.42857146,   5.79081631
    660,          30.,    8.5714283,   4.89795923
    661,          30.,   7.14285707,   4.79591846
    662,          30.,   5.71428585,    4.6938777
    663,          30.,   4.28571415,   4.59183693
    664,          30.,   2.85714293,   4.48979568
    665,          30.,   1.42857146,   4.38775492
    666,          30.,    8.5714283,   3.26530623
    667,          30.,   7.14285707,   3.19727898
    668,          30.,   5.71428585,   3.12925172
    669,          30.,   4.28571415,   3.06122446
    670,          30.,   2.85714293,    2.9931972
    671,          30.,   1.42857146,   2.92517018
    672,          30.,    8.5714283,   1.63265312
    673,          30.,   7.14285707,   1.59863949
    674,          30.,   5.71428585,   1.56462586
    675,          30.,   4.28571415,   1.53061223
    676,          30.,   2.85714293,    1.4965986
    677,          30.,   1.42857146,   1.46258509
    678,         28.5,           0.,   1.42857146
    679,         28.5,           0.,   2.85714293
    680,         28.5,           0.,   4.28571415
    681,         28.5,           0.,   5.71428585
    682,         28.5,           0.,   7.14285707
    683,         28.5,           0.,    8.5714283
    684,          27.,           0.,   1.42857146
    685,          27.,           0.,   2.85714293
    686,          27.,           0.,   4.28571415
    687,          27.,           0.,   5.71428585
    688,          27.,           0.,   7.14285707
    689,          27.,           0.,    8.5714283
    690,         25.5,           0.,   1.42857146
    691,         25.5,           0.,   2.85714293
    692,         25.5,           0.,   4.28571415
    693,         25.5,           0.,   5.71428585
    694,         25.5,           0.,   7.14285707
    695,         25.5,           0.,    8.5714283
    696,          24.,           0.,   1.42857146
    697,          24.,           0.,   2.85714293
    698,          24.,           0.,   4.28571415
    699,          24.,           0.,   5.71428585
    700,          24.,           0.,   7.14285707
    701,          24.,           0.,    8.5714283
    702,         22.5,           0.,   1.42857146
    703,         22.5,           0.,   2.85714293
    704,         22.5,           0.,   4.28571415
    705,         22.5,           0.,   5.71428585
    706,         22.5,           0.,   7.14285707
    707,         22.5,           0.,    8.5714283
    708,          21.,           0.,   1.42857146
    709,          21.,           0.,   2.85714293
    710,          21.,           0.,   4.28571415
    711,          21.,           0.,   5.71428585
    712,          21.,           0.,   7.14285707
    713,          21.,           0.,    8.5714283
    714,         19.5,           0.,   1.42857146
    715,         19.5,           0.,   2.85714293
    716,         19.5,           0.,   4.28571415
    717,         19.5,           0.,   5.71428585
    718,         19.5,           0.,   7.14285707
    719,         19.5,           0.,    8.5714283
    720,          18.,           0.,   1.42857146
    721,          18.,           0.,   2.85714293
    722,          18.,           0.,   4.28571415
    723,          18.,           0.,   5.71428585
    724,          18.,           0.,   7.14285707
    725,          18.,           0.,    8.5714283
    726,         16.5,           0.,   1.42857146
    727,         16.5,           0.,   2.85714293
    728,         16.5,           0.,   4.28571415
    729,         16.5,           0.,   5.71428585
    730,         16.5,           0.,   7.14285707
    731,         16.5,           0.,    8.5714283
    732,          15.,           0.,   1.42857146
    733,          15.,           0.,   2.85714293
    734,          15.,           0.,   4.28571415
    735,          15.,           0.,   5.71428585
    736,          15.,           0.,   7.14285707
    737,          15.,           0.,    8.5714283
    738,         13.5,           0.,   1.42857146
    739,         13.5,           0.,   2.85714293
    740,         13.5,           0.,   4.28571415
    741,         13.5,           0.,   5.71428585
    742,         13.5,           0.,   7.14285707
    743,         13.5,           0.,    8.5714283
    744,          12.,           0.,   1.42857146
    745,          12.,           0.,   2.85714293
    746,          12.,           0.,   4.28571415
    747,          12.,           0.,   5.71428585
    748,          12.,           0.,   7.14285707
    749,          12.,           0.,    8.5714283
    750,         10.5,           0.,   1.42857146
    751,         10.5,           0.,   2.85714293
    752,         10.5,           0.,   4.28571415
    753,         10.5,           0.,   5.71428585
    754,         10.5,           0.,   7.14285707
    755,         10.5,           0.,    8.5714283
    756,           9.,           0.,   1.42857146
    757,           9.,           0.,   2.85714293
    758,           9.,           0.,   4.28571415
    759,           9.,           0.,   5.71428585
    760,           9.,           0.,   7.14285707
    761,           9.,           0.,    8.5714283
    762,          7.5,           0.,   1.42857146
    763,          7.5,           0.,   2.85714293
    764,          7.5,           0.,   4.28571415
    765,          7.5,           0.,   5.71428585
    766,          7.5,           0.,   7.14285707
    767,          7.5,           0.,    8.5714283
    768,           6.,           0.,   1.42857146
    769,           6.,           0.,   2.85714293
    770,           6.,           0.,   4.28571415
    771,           6.,           0.,   5.71428585
    772,           6.,           0.,   7.14285707
    773,           6.,           0.,    8.5714283
    774,          4.5,           0.,   1.42857146
    775,          4.5,           0.,   2.85714293
    776,          4.5,           0.,   4.28571415
    777,          4.5,           0.,   5.71428585
    778,          4.5,           0.,   7.14285707
    779,          4.5,           0.,    8.5714283
    780,           3.,           0.,   1.42857146
    781,           3.,           0.,   2.85714293
    782,           3.,           0.,   4.28571415
    783,           3.,           0.,   5.71428585
    784,           3.,           0.,   7.14285707
    785,           3.,           0.,    8.5714283
    786,          1.5,           0.,   1.42857146
    787,          1.5,           0.,   2.85714293
    788,          1.5,           0.,   4.28571415
    789,          1.5,           0.,   5.71428585
    790,          1.5,           0.,   7.14285707
    791,          1.5,           0.,    8.5714283
    792,          1.5,   1.42857146,          10.
    793,           3.,   1.42857146,          10.
    794,          4.5,   1.42857146,          10.
    795,           6.,   1.42857146,          10.
    796,          7.5,   1.42857146,          10.
    797,           9.,   1.42857146,          10.
    798,         10.5,   1.42857146,          10.
    799,          12.,   1.42857146,          10.
    800,         13.5,   1.42857146,          10.
    801,          15.,   1.42857146,          10.
    802,         16.5,   1.42857146,          10.
    803,          18.,   1.42857146,          10.
    804,         19.5,   1.42857146,          10.
    805,          21.,   1.42857146,          10.
    806,         22.5,   1.42857146,          10.
    807,          24.,   1.42857146,          10.
    808,         25.5,   1.42857146,          10.
    809,          27.,   1.42857146,          10.
    810,         28.5,   1.42857146,          10.
    811,          1.5,   2.85714293,          10.
    812,           3.,   2.85714293,          10.
    813,          4.5,   2.85714293,          10.
    814,           6.,   2.85714293,          10.
    815,          7.5,   2.85714293,          10.
    816,           9.,   2.85714293,          10.
    817,         10.5,   2.85714293,          10.
    818,          12.,   2.85714293,          10.
    819,         13.5,   2.85714293,          10.
    820,          15.,   2.85714293,          10.
    821,         16.5,   2.85714293,          10.
    822,          18.,   2.85714293,          10.
    823,         19.5,   2.85714293,          10.
    824,          21.,   2.85714293,          10.
    825,         22.5,   2.85714293,          10.
    826,          24.,   2.85714293,          10.
    827,         25.5,   2.85714293,          10.
    828,          27.,   2.85714293,          10.
    829,         28.5,   2.85714293,          10.
    830,          1.5,   4.28571415,          10.
    831,           3.,   4.28571415,          10.
    832,          4.5,   4.28571415,          10.
    833,           6.,   4.28571415,          10.
    834,          7.5,   4.28571415,          10.
    835,           9.,   4.28571415,          10.
    836,         10.5,   4.28571415,          10.
    837,          12.,   4.28571415,          10.
    838,         13.5,   4.28571415,          10.
    839,          15.,   4.28571415,          10.
    840,         16.5,   4.28571415,          10.
    841,          18.,   4.28571415,          10.
    842,         19.5,   4.28571415,          10.
    843,          21.,   4.28571415,          10.
    844,         22.5,   4.28571415,          10.
    845,          24.,   4.28571415,          10.
    846,         25.5,   4.28571415,          10.
    847,          27.,   4.28571415,          10.
    848,         28.5,   4.28571415,          10.
    849,          1.5,   5.71428585,          10.
    850,           3.,   5.71428585,          10.
    851,          4.5,   5.71428585,          10.
    852,           6.,   5.71428585,          10.
    853,          7.5,   5.71428585,          10.
    854,           9.,   5.71428585,          10.
    855,         10.5,   5.71428585,          10.
    856,          12.,   5.71428585,          10.
    857,         13.5,   5.71428585,          10.
    858,          15.,   5.71428585,          10.
    859,         16.5,   5.71428585,          10.
    860,          18.,   5.71428585,          10.
    861,         19.5,   5.71428585,          10.
    862,          21.,   5.71428585,          10.
    863,         22.5,   5.71428585,          10.
    864,          24.,   5.71428585,          10.
    865,         25.5,   5.71428585,          10.
    866,          27.,   5.71428585,          10.
    867,         28.5,   5.71428585,          10.
    868,          1.5,   7.14285707,          10.
    869,           3.,   7.14285707,          10.
    870,          4.5,   7.14285707,          10.
    871,           6.,   7.14285707,          10.
    872,          7.5,   7.14285707,          10.
    873,           9.,   7.14285707,          10.
    874,         10.5,   7.14285707,          10.
    875,          12.,   7.14285707,          10.
    876,         13.5,   7.14285707,          10.
    877,          15.,   7.14285707,          10.
    878,         16.5,   7.14285707,          10.
    879,          18.,   7.14285707,          10.
    880,         19.5,   7.14285707,          10.
    881,          21.,   7.14285707,          10.
    882,         22.5,   7.14285707,          10.
    883,          24.,   7.14285707,          10.
    884,         25.5,   7.14285707,          10.
    885,          27.,   7.14285707,          10.
    886,         28.5,   7.14285707,          10.
    887,          1.5,    8.5714283,          10.
    888,           3.,    8.5714283,          10.
    889,          4.5,    8.5714283,          10.
    890,           6.,    8.5714283,          10.
    891,          7.5,    8.5714283,          10.
    892,           9.,    8.5714283,          10.
    893,         10.5,    8.5714283,          10.
    894,          12.,    8.5714283,          10.
    895,         13.5,    8.5714283,          10.
    896,          15.,    8.5714283,          10.
    897,         16.5,    8.5714283,          10.
    898,          18.,    8.5714283,          10.
    899,         19.5,    8.5714283,          10.
    900,          21.,    8.5714283,          10.
    901,         22.5,    8.5714283,          10.
    902,          24.,    8.5714283,          10.
    903,         25.5,    8.5714283,          10.
    904,          27.,    8.5714283,          10.
    905,         28.5,    8.5714283,          10.
    906,          1.5,          10.,          10.
    907,           3.,          10.,          10.
    908,          4.5,          10.,          10.
    909,           6.,          10.,          10.
    910,          7.5,          10.,          10.
    911,           9.,          10.,          10.
    912,         10.5,          10.,          10.
    913,          12.,          10.,          10.
    914,         13.5,          10.,          10.
    915,          15.,          10.,          10.
    916,         16.5,          10.,          10.
    917,          18.,          10.,          10.
    918,         19.5,          10.,          10.
    919,          21.,          10.,          10.
    920,         22.5,          10.,          10.
    921,          24.,          10.,          10.
    922,         25.5,          10.,          10.
    923,          27.,          10.,          10.
    924,         28.5,          10.,          10.
    925,          1.5,   11.4285717,          10.
    926,           3.,   11.4285717,          10.
    927,          4.5,   11.4285717,          10.
    928,           6.,   11.4285717,          10.
    929,          7.5,   11.4285717,          10.
    930,           9.,   11.4285717,          10.
    931,         10.5,   11.4285717,          10.
    932,          12.,   11.4285717,          10.
    933,         13.5,   11.4285717,          10.
    934,          15.,   11.4285717,          10.
    935,         16.5,   11.4285717,          10.
    936,          18.,   11.4285717,          10.
    937,         19.5,   11.4285717,          10.
    938,          21.,   11.4285717,          10.
    939,         22.5,   11.4285717,          10.
    940,          24.,   11.4285717,          10.
    941,         25.5,   11.4285717,          10.
    942,          27.,   11.4285717,          10.
    943,         28.5,   11.4285717,          10.
    944,          1.5,   12.8571424,          10.
    945,           3.,   12.8571424,          10.
    946,          4.5,   12.8571424,          10.
    947,           6.,   12.8571424,          10.
    948,          7.5,   12.8571424,          10.
    949,           9.,   12.8571424,          10.
    950,         10.5,   12.8571424,          10.
    951,          12.,   12.8571424,          10.
    952,         13.5,   12.8571424,          10.
    953,          15.,   12.8571424,          10.
    954,         16.5,   12.8571424,          10.
    955,          18.,   12.8571424,          10.
    956,         19.5,   12.8571424,          10.
    957,          21.,   12.8571424,          10.
    958,         22.5,   12.8571424,          10.
    959,          24.,   12.8571424,          10.
    960,         25.5,   12.8571424,          10.
    961,          27.,   12.8571424,          10.
    962,         28.5,   12.8571424,          10.
    963,          1.5,   14.2857141,          10.
    964,           3.,   14.2857141,          10.
    965,          4.5,   14.2857141,          10.
    966,           6.,   14.2857141,          10.
    967,          7.5,   14.2857141,          10.
    968,           9.,   14.2857141,          10.
    969,         10.5,   14.2857141,          10.
    970,          12.,   14.2857141,          10.
    971,         13.5,   14.2857141,          10.
    972,          15.,   14.2857141,          10.
    973,         16.5,   14.2857141,          10.
    974,          18.,   14.2857141,          10.
    975,         19.5,   14.2857141,          10.
    976,          21.,   14.2857141,          10.
    977,         22.5,   14.2857141,          10.
    978,          24.,   14.2857141,          10.
    979,         25.5,   14.2857141,          10.
    980,          27.,   14.2857141,          10.
    981,         28.5,   14.2857141,          10.
    982,          1.5,   15.7142859,          10.
    983,           3.,   15.7142859,          10.
    984,          4.5,   15.7142859,          10.
    985,           6.,   15.7142859,          10.
    986,          7.5,   15.7142859,          10.
    987,           9.,   15.7142859,          10.
    988,         10.5,   15.7142859,          10.
    989,          12.,   15.7142859,          10.
    990,         13.5,   15.7142859,          10.
    991,          15.,   15.7142859,          10.
    992,         16.5,   15.7142859,          10.
    993,          18.,   15.7142859,          10.
    994,         19.5,   15.7142859,          10.
    995,          21.,   15.7142859,          10.
    996,         22.5,   15.7142859,          10.
    997,          24.,   15.7142859,          10.
    998,         25.5,   15.7142859,          10.
    999,          27.,   15.7142859,          10.
   1000,         28.5,   15.7142859,          10.
   1001,          1.5,   17.1428566,          10.
   1002,           3.,   17.1428566,          10.
   1003,          4.5,   17.1428566,          10.
   1004,           6.,   17.1428566,          10.
   1005,          7.5,   17.1428566,          10.
   1006,           9.,   17.1428566,          10.
   1007,         10.5,   17.1428566,          10.
   1008,          12.,   17.1428566,          10.
   1009,         13.5,   17.1428566,          10.
   1010,          15.,   17.1428566,          10.
   1011,         16.5,   17.1428566,          10.
   1012,          18.,   17.1428566,          10.
   1013,         19.5,   17.1428566,          10.
   1014,          21.,   17.1428566,          10.
   1015,         22.5,   17.1428566,          10.
   1016,          24.,   17.1428566,          10.
   1017,         25.5,   17.1428566,          10.
   1018,          27.,   17.1428566,          10.
   1019,         28.5,   17.1428566,          10.
   1020,          1.5,   18.5714283,          10.
   1021,           3.,   18.5714283,          10.
   1022,          4.5,   18.5714283,          10.
   1023,           6.,   18.5714283,          10.
   1024,          7.5,   18.5714283,          10.
   1025,           9.,   18.5714283,          10.
   1026,         10.5,   18.5714283,          10.
   1027,          12.,   18.5714283,          10.
   1028,         13.5,   18.5714283,          10.
   1029,          15.,   18.5714283,          10.
   1030,         16.5,   18.5714283,          10.
   1031,          18.,   18.5714283,          10.
   1032,         19.5,   18.5714283,          10.
   1033,          21.,   18.5714283,          10.
   1034,         22.5,   18.5714283,          10.
   1035,          24.,   18.5714283,          10.
   1036,         25.5,   18.5714283,          10.
   1037,          27.,   18.5714283,          10.
   1038,         28.5,   18.5714283,          10.
   1039,   18.8452549,   15.0580473,   5.71043444
   1040,   18.0258446,    14.014802,   5.10138988
   1041,   19.1529579,    13.692853,   5.81706142
   1042,   17.8975849,   14.1343775,   6.94658136
   1043,   17.5293255,   15.1896858,   3.79669285
   1044,   17.3659554,   15.1639023,   5.99147654
   1045,   18.6085052,   16.5187588,   5.45986223
   1046,   19.2981167,    15.973134,    4.0795784
   1047,   20.3923359,   15.2643414,   6.18575382
   1048,   27.3905563,   17.4195671,     6.699471
   1049,   26.9171181,   16.4133968,   7.84231186
   1050,   27.7773781,    17.912714,   8.03490543
   1051,   26.1683655,   17.8903484,   7.47248316
   1052,   27.1921673,   17.7448559,   5.37117434
   1053,   28.4372597,   17.0296326,   6.09445858
   1054,   27.5804672,   15.9833469,   5.37374735
   1055,    25.907732,   17.0264664,   6.34831858
   1056,   26.1370792,   18.9530106,   6.49602652
   1057,    11.118166,   7.52835655,   4.33366823
   1058,   12.6459122,   8.19927216,    5.1205945
   1059,   12.0712576,   9.50250816,   4.36053276
   1060,   10.4519835,   8.62853909,   5.08221912
   1061,   9.68729115,    6.9412055,   3.87351322
   1062,   10.6378937,   8.55879402,   3.36620212
   1063,    10.856431,   6.38366127,   2.85207438
   1064,   11.5252466,   6.50258684,   5.28783751
   1065,   10.2927008,   7.54907036,   6.06171227
   1066,   24.3995018,    15.170702,   4.88394737
   1067,   24.8169651,   13.7244902,   5.02976084
   1068,     23.53125,   13.5714302,           5.
   1069,   24.1339283,   14.2346954,   3.39285779
   1070,   22.1685123,   14.6030912,   5.34913826
   1071,   23.6498528,   16.4969196,   5.50450468
   1072,   23.7537842,   15.3117666,   6.22932816
   1073,   25.2708244,   15.2324238,   3.88838506
   1074,   24.7982578,   16.2951126,   6.30702829
   1075,   25.2121582,   16.4545345,   4.46067429
   1076,   25.5059147,   14.7344112,   5.87609291
   1077,   24.1919689,   10.9257526,   4.33121681
   1078,   25.7774849,   11.0621986,   5.34916115
   1079,   25.3858471,   12.0231905,   4.28448009
   1080,   24.1517887,     12.34694,   4.97023726
   1081,   22.3055096,   10.9691248,   4.85602045
   1082,   23.7076073,    11.123435,   5.74010611
   1083,   24.1008663,   9.12050533,   4.28088856
   1084,   24.4263268,   10.0586405,   5.51218557
   1085,   22.6388111,   9.78164387,   4.36542988
   1086,   7.60174179,   14.2522812,   3.47630453
   1087,   9.12444115,   13.9238634,   3.26758122
   1088,   8.23571491,   15.9744949,   4.00476074
   1089,   8.32046127,   14.1855154,   5.04093456
   1090,   9.58124924,   15.0119104,   4.59444332
   1091,   9.41249943,   16.4523869,   4.18888855
   1092,   9.11250114,   15.4285746,     2.650002
   1093,   10.5217619,   13.9551315,   3.28605795
   1094,   9.69090939,   13.5383463,    4.9895215
   1095,   11.4147367,        13.46,   4.99326897
   1096,   10.8415909,   15.1901684,   3.77535033
   1097,   8.82551575,   16.5746269,   5.65043402
   1098,   10.4693813,    14.954031,   6.32006073
   1099,   10.2724266,   16.4798164,   5.46039438
   1100,   8.98300838,   15.3818274,   6.10017109
   1101,   19.1283379,   7.49793434,   5.33150721
   1102,   19.6245079,   7.12132168,   6.68089342
   1103,   18.1420841,      6.22823,   6.67958641
   1104,   18.9565411,   6.00521803,    5.0113678
   1105,   13.0463953,   12.1320524,   5.09056187
   1106,   15.1072159,   12.4044361,   6.49578714
   1107,    13.577611,   10.9802418,   4.35563183
   1108,   14.2611351,   13.0995016,   5.18114996
   1109,   20.9500904,   8.06446934,   4.91854668
   1110,   19.0022831,   7.63402605,   3.34733176
   1111,   20.4469433,   6.93848228,   4.36553812
   1112,   13.0708961,     9.817729,   6.76723671
   1113,   11.7105999,    9.7452774,   5.59990835
   1114,   13.2736053,    10.435154,   5.49780416
   1115,    13.873065,   9.32526875,   5.39789295
   1116,   14.9464359,   8.16646862,   6.73125982
   1117,   15.2973166,   9.23250484,   4.55922651
   1118,    14.632699,   7.92637682,   5.56212234
   1119,   13.3928576,   8.46938705,   6.78571129
   1120,   13.7168818,   7.81318426,   4.17893267
   1121,   15.3794785,   10.7550917,   5.14652205
   1122,   14.9041996,   9.83269024,   6.79746294
   1123,   2.21310186,   12.8166695,   6.04910946
   1124,   1.04277289,   11.8895636,   6.68058586
   1125,   2.23955059,   12.0605316,   7.29412699
   1126,   1.07002532,   13.3288622,   6.69563246
   1127,   2.18621993,   12.1332111,   4.78368092
   1128,   1.12657893,   13.7571793,   4.52526236
   1129,   2.79142809,   13.7491331,   4.57406425
   1130,   6.75240326,   14.1851387,   5.07874155
   1131,   6.94845915,    12.194706,   4.10101748
   1132,   6.05147219,   13.0263243,   3.23662877
   1133,   6.16006994,   14.3546476,   3.40418553
   1134,   5.35000515,   14.2129593,   4.99579287
   1135,   5.49849796,   12.5282726,     5.495193
   1136,   13.6568861,   10.3229103,   8.14270687
   1137,   12.2467575,   11.3308659,   8.30830097
   1138,   14.0298033,   10.9384918,   9.04378891
   1139,   13.5308685,   11.7026482,   8.20097446
   1140,   7.64262152,   12.6696072,   5.01178789
   1141,   8.41332245,   10.7362671,   4.94466448
   1142,   6.79722214,   10.0477781,   5.01146269
   1143,   14.2814703,   13.9834118,   1.30956769
   1144,   15.5627947,   13.0639391,   3.06429434
   1145,   15.2923031,   15.6506386,   2.34479713
   1146,   14.7787533,   14.2465153,   3.42800999
   1147,    8.0787487,   12.9821339,   3.12042046
   1148,   5.75545549,   11.3274946,   4.85166311
   1149,   6.87858629,   12.3773117,   2.31920934
   1150,   6.16796541,   11.4719114,   3.26505184
   1151,    7.6053009,   11.5020094,    3.1598711
   1152,   23.9660015,   6.42349958,   3.27950382
   1153,   24.0910263,   5.60823965,   4.61650229
   1154,   25.4375019,   5.89285803,   3.33333206
   1155,   25.2053547,   7.33843517,   5.11904764
   1156,   25.3750038,   5.83333445,   4.99999809
   1157,   24.2104855,    6.6593709,   5.73912573
   1158,   16.7923622,   14.2161865,   1.71176088
   1159,   15.7137604,   13.0024786,    1.1228745
   1160,   15.7333221,   15.0153236,   0.81465596
   1161,   2.04640961,   1.08199131,   1.86992443
   1162,   2.04632425,  0.867500365,  0.547320902
   1163,   24.0412617,   4.57868433,   3.55750155
   1164,   22.3691616,   5.19644213,   4.57725477
   1165,   23.3060932,   5.34430218,   6.67722225
   1166,   25.3027782,   4.63176203,   5.96019745
   1167,    22.999218,   7.05328798,   5.04349089
   1168,   18.0439396,   9.87742901,   6.75957441
   1169,   19.9673634,   9.85185528,    6.8937068
   1170,   19.7279911,   8.61211872,   6.97445869
   1171,   18.9393482,   10.2984562,   5.84396219
   1172,   18.7329426,   10.1181355,   4.41247606
   1173,   17.2588615,   11.3501806,    5.1125102
   1174,   18.8254814,   12.2751503,   5.05356598
   1175,   17.2873764,   9.99385643,   4.42754412
   1176,   19.6022053,   8.85034657,   5.17393637
   1177,   20.0700188,   10.8421001,    5.2315197
   1178,   19.6188412,   11.6024065,   6.86853123
   1179,   27.7298431,   8.28317165,     5.625072
   1180,   26.1747513,    8.3336935,   6.29335403
   1181,   26.4861946,   7.73685408,   4.74384642
   1182,   26.6351376,   6.20103836,   5.69485569
   1183,   27.7051392,   8.42844105,    7.0531168
   1184,   27.7279358,   9.95300102,   6.94974709
   1185,   29.0293274,   13.4864635,   7.28077126
   1186,  0.859084189,  0.997296035,  0.926237047
   1187,   27.7555122,   6.52613401,   6.41576481
   1188,   28.9795723,   7.54189253,   6.56239748
   1189,   27.7139835,   8.14542294,   4.29095078
   1190,    28.881897,   9.25954628,   4.98860931
   1191,   28.8838577,   7.67986155,   4.88493776
   1192,   27.9810658,   6.52164698,   4.78114605
   1193,   26.7780952,   3.70024991,   6.94628096
   1194,   28.7949295,   4.67913914,   6.95698357
   1195,   27.6256104,   4.91843271,   5.98365498
   1196,   27.6947517,   4.99139357,   7.39839745
   1197,   28.9042473,   3.31362605,   6.60599422
   1198,   27.0240269,   3.63020611,   5.66956234
   1199,    25.224184,   2.67169809,   6.44863653
   1200,   27.3464985,   2.30832863,   6.84772635
   1201,   25.2501011,   2.47227859,   7.79703903
   1202,   26.4438057,   5.33479118,    7.1810956
   1203,   15.4150105,   12.6844635,   4.78588915
   1204,   15.1139584,   11.3686028,   2.99236917
   1205,    13.670228,   11.6984453,   3.27344179
   1206,   27.8008499,   11.3228168,   4.51835632
   1207,   27.7448978,   10.9278126,   3.01167846
   1208,   26.6744881,   11.9028015,   4.08923006
   1209,   27.6952953,   12.7563457,   3.04134607
   1210,   26.0983849,   10.4883327,   4.05171776
   1211,   27.2055416,   11.1189995,   5.78968525
   1212,   28.8698788,   9.88957405,   4.28841972
   1213,   27.7340317,   9.74477005,   4.36681366
   1214,   28.9845943,   10.9594641,   5.34441376
   1215,   10.2185831,   6.40456676,   7.26737022
   1216,   9.25223446,   4.54423141,   6.91109467
   1217,   8.64659595,   5.65479708,   8.37397957
   1218,   7.97589397,   5.41864634,   7.09811258
   1219,   26.6411762,   9.84201145,   7.62610483
   1220,   27.0333118,   9.65272808,   5.70434952
   1221,   26.4105949,   8.37420082,   7.77076864
   1222,   26.4530449,   6.77363729,   7.36655951
   1223,   26.1872044,   9.35675144,   4.65926695
   1224,   25.1685543,   9.82236767,   6.67169619
   1225,   24.2371197,   8.23985958,    6.9196043
   1226,   4.10470676,   14.8881617,   5.10990286
   1227,   4.56282234,    14.074954,   6.66192484
   1228,    5.8915906,   15.3698893,   6.17142916
   1229,   4.32561111,   13.4753008,   4.58632326
   1230,   3.28854799,   14.3301334,   6.08556128
   1231,   14.7821302,   6.89869356,   8.68390274
   1232,   3.82166171,   15.1067448,   3.58102179
   1233,    4.6796484,   13.8719549,    3.3335259
   1234,   5.98755884,   15.9435806,   4.00703716
   1235,   5.35796404,   16.5178986,    5.2181983
   1236,   2.89508295,   15.6173677,   5.16841793
   1237,   4.60414124,    16.433445,    4.1460762
   1238,    3.5522058,   16.9947796,   4.93420315
   1239,   9.38240433,   11.1193762,   5.94488096
   1240,   11.2778549,   11.4597044,   4.92769289
   1241,   10.1357365,   9.92753696,   5.11579037
   1242,   9.59422302,   12.0489397,   4.92241383
   1243,   7.72968054,    7.4535203,    4.5111351
   1244,   9.42075443,    6.0925436,   5.62712049
   1245,   8.42103004,   8.57717896,   4.97822809
   1246,   8.37630463,   7.00756836,   6.82578564
   1247,   11.0741596,   9.93249321,   6.88427353
   1248,   8.84821415,   10.1530628,   6.84523726
   1249,   7.68750143,   11.3690472,   6.66666412
   1250,   10.3392849,   8.77550983,   6.84523726
   1251,   12.2536821,   11.3085642,   6.60802794
   1252,   7.71319342,   8.65121746,   3.07523274
   1253,   9.28778934,   7.46037674,   1.36322701
   1254,   9.15169907,   8.77183628,   3.12213254
   1255,   8.35400772,    6.6949296,   2.45058227
   1256,   16.8224983,   3.31226563,   7.03851843
   1257,   18.1918221,   2.64754319,   7.30381823
   1258,   16.9034672,   1.17091298,    6.7028079
   1259,   16.8697205,   2.32429695,   5.55845451
   1260,   16.8909245,   2.26514935,   8.70685101
   1261,   15.8151913,   4.53119707,   7.41872692
   1262,   17.0498219,   4.74313021,   6.30785704
   1263,   15.4880972,   4.04024553,   6.24062395
   1264,   16.7584076,   3.51665449,   4.82073355
   1265,   17.7470226,   3.44558048,   5.87698221
   1266,   15.6105881,   2.25249529,   7.34198046
   1267,   14.7941666,    14.478404,   5.05792379
   1268,   16.4354553,   13.8387566,   4.95197535
   1269,   16.0691776,   15.3809757,   4.61354923
   1270,   17.2384548,   16.6397591,    5.7786026
   1271,   15.6746511,   15.4209814,   6.03369045
   1272,    14.755682,   16.0821819,    4.1197834
   1273,   11.0827513,   7.70947599,   7.68582821
   1274,   10.2857132,   6.93877697,   8.57142639
   1275,   11.7748327,   6.97860765,   8.57907772
   1276,   16.9334621,   16.4511986,   4.26020193
   1277,   15.9127731,   16.7100983,   5.97260284
   1278,   9.11806202,   8.33264446,   6.64970541
   1279,   7.64522648,   8.47482395,    6.7986145
   1280,   25.3392868,   7.04932022,   6.84524107
   1281,    26.712492,   6.20804501,   4.05906439
   1282,   26.3625813,   7.55597401,   2.76219106
   1283,   9.00000095,   8.33333397,   8.33333206
   1284,   24.9118061,   7.68227673,   3.32382298
   1285,   6.12164164,   7.89471388,   3.10721874
   1286,   7.39450407,   7.58192873,   1.63480926
   1287,   6.24948549,   8.77813244,   1.44725347
   1288,   20.5112228,   9.90697575,   3.40723562
   1289,   21.3046761,   9.94228745,    5.3766737
   1290,   21.0239525,   10.6921835,   6.87503767
   1291,   21.9795856,   11.6342974,   6.47154284
   1292,   22.5352154,   10.1482401,   7.15741777
   1293,    20.927515,    8.7630434,   6.62634706
   1294,   19.2683582,   15.2989426,   7.83284855
   1295,   20.2889576,   13.4092684,   6.67518139
   1296,   4.19227552,   7.84701014,   4.92786026
   1297,   5.53144407,   7.34426689,   5.09296751
   1298,   6.38381529,    8.6268959,   5.45758963
   1299,   5.58034897,   8.56475163,   6.63322973
   1300,   20.0492859,   14.7706308,   4.78270435
   1301,   19.6099243,   14.2110023,   3.37283039
   1302,   20.8575115,   13.7024841,   4.69796515
   1303,   20.4679184,   12.0722647,   5.00243998
   1304,   17.5754967,   12.8225069,   4.91803551
   1305,   18.1984577,   12.8448277,    6.6430583
   1306,   6.87206841,   8.56214237,   4.31269407
   1307,    7.6355505,   10.0862103,   3.39982438
   1308,   19.1438637,   12.8351707,   3.42524123
   1309,   2.25274634,   11.4364252,   6.01219034
   1310,   4.07547617,   10.8721666,   5.06639338
   1311,   4.12001753,   9.52421284,   5.82882833
   1312,   1.95813406,   10.2072067,   4.49293756
   1313,   1.11691761,   12.2593393,   5.59267187
   1314,  0.992397308,   10.7936268,   5.04958105
   1315,   2.24746156,   10.7078581,   7.32295084
   1316,   3.65915966,   11.1424303,    7.0864296
   1317,    2.1448729,   9.74395657,   5.94831276
   1318,    1.0427748,   10.4609909,   6.68058586
   1319,   3.28008008,   2.87766623,   5.56271124
   1320,   4.09271193,   2.31344604,   4.56405735
   1321,   3.66010237,   4.31767702,    5.0391674
   1322,   4.73502207,    3.3344233,   5.03506088
   1323,   3.45382833,   3.96836424,   3.63031793
   1324,   2.17884302,   2.53265166,   4.71460056
   1325,   9.72033405,   12.7476044,   3.13143086
   1326,    9.4628315,   12.4639168,    1.1133064
   1327,   2.34975958,   3.62309885,   6.41052389
   1328,   3.33767509,   4.35725498,   6.37361956
   1329,    3.7655282,  0.996440887,   5.63938141
   1330,   4.77142811,   2.25850391,   5.90476131
   1331,   2.19229722,     1.206774,   4.78099775
   1332,   15.7883062,   4.71427202,   4.90813112
   1333,   16.7447491,   5.81108904,   4.85237741
   1334,   16.5657425,   4.19505167,   3.57049584
   1335,   16.4372387,   5.78458738,   6.46972609
   1336,   15.1599579,   6.19015932,   4.88087273
   1337,   14.8901806,   6.02766085,   6.50103617
   1338,   13.9807882,   5.11048126,   6.09061241
   1339,   14.2427473,   5.00957966,   4.38260317
   1340,   14.9767857,   3.46145201,   4.98809433
   1341,   22.7179356,   2.29268885,   5.47261715
   1342,   21.9487019,    3.7353127,   6.12722397
   1343,    21.278429,   1.98963535,    5.3835454
   1344,   22.0765476,   1.66236424,    7.4782753
   1345,   20.6908073,   3.18256307,    6.5448575
   1346,   21.0538177,   3.02075648,   4.46842337
   1347,   20.2529659,   4.48919058,   5.71070433
   1348,    19.062746,   4.03278685,   6.09502125
   1349,   19.5667267,   4.23522997,    7.6938591
   1350,   21.5182037,   2.87101889,    7.6996932
   1351,   20.8548546,   4.26380873,   7.79169893
   1352,   22.3882866,   4.18073463,    7.3143158
   1353,   21.4425011,   5.34286928,   6.65146923
   1354,   23.3233166,   3.11482811,   6.74529934
   1355,   23.4936314,   3.34960675,   8.89288521
   1356,   22.0146084,    3.3167181,   8.89603901
   1357,   7.52881479,   15.4504251,   2.57893753
   1358,   22.2500019,    5.7142868,   8.33333206
   1359,   22.7848034,   4.48430681,   8.60024738
   1360,   24.0689297,   4.06385708,   7.72956228
   1361,   23.1558762,   4.36147404,   5.48263168
   1362,   20.8074265,   15.1264429,   3.85730362
   1363,    22.614954,   14.9418001,   3.92080283
   1364,   21.8507824,   12.4960699,   4.87627029
   1365,   21.0459881,   12.5398836,    6.5140152
   1366,   10.3629875,   11.5506496,   6.84819031
   1367,       8.8125,   12.4404783,   6.66666412
   1368,   20.8697376,   12.6972075,   3.12652421
   1369,   22.7091103,   13.8255339,    3.3831358
   1370,   20.8804207,   13.9819107,   3.29520798
   1371,   1.03761733,   1.91127002,  0.949717402
   1372,   5.11207199,   4.66864729,     5.901124
   1373,   6.05357218,   3.53911805,   4.72619057
   1374,   4.90186644,   4.43029594,   4.15298939
   1375,   6.10714197,   4.73299408,   3.94047475
   1376,   5.85000038,   3.54762197,   6.45238018
   1377,   6.60383987,   4.95059776,   5.87859392
   1378,   5.62610674,   4.71901512,   7.35430241
   1379,   4.51712942,   5.69083691,   4.67022419
   1380,   5.97306681,    5.8432045,   4.82178783
   1381,   4.24262619,   17.0138931,   2.30584455
   1382,   5.38347197,   17.3339272,   2.91780257
   1383,   3.58997679,   17.2489948,   3.54238439
   1384,    19.806881,   5.74533796,    6.7696805
   1385,   20.9896832,   6.76723099,   8.22132301
   1386,   19.7216873,   5.77694035,   8.32698441
   1387,   4.15012074,   18.8762608,    3.6092813
   1388,   4.06197405,   18.9272423,   2.31345916
   1389,   4.68747616,   15.4291639,   2.62879062
   1390,   3.53731489,   15.2648096,   1.12689757
   1391,   4.99804878,   16.6685295,   1.07075262
   1392,   4.99831486,   18.0920296,  0.980810463
   1393,   10.2945004,   5.17026901,   4.48722172
   1394,   12.7166061,   5.49644756,     4.427145
   1395,   13.3186522,   6.61354828,   5.32075882
   1396,   12.4729853,   6.82137871,    3.2553792
   1397,   24.6250019,   1.04072213,   7.73809481
   1398,   16.5203133,   8.83125401,   3.08053827
   1399,   18.1026134,   10.0958862,   3.16981149
   1400,   16.5450096,   11.0716925,   3.39205027
   1401,   18.0196114,   11.5316839,   3.49736023
   1402,   16.5044422,    9.8914175,   5.63258219
   1403,   20.1212902,   6.44267559,   5.52556753
   1404,   27.6039314,     16.74786,   2.86104751
   1405,   26.2113209,   17.7364635,   4.12876034
   1406,   25.3450031,   17.3315697,   3.10065699
   1407,    26.401865,    16.319334,   3.67504191
   1408,   27.0592461,   15.2948532,   2.34977412
   1409,   27.8072662,   15.8950195,   3.86724782
   1410,   26.6311913,   14.8319921,   3.73988843
   1411,   27.4639511,   17.3593349,   4.14285517
   1412,   24.9678383,    17.688694,   4.88105726
   1413,   24.4526157,   16.6880264,   8.62493229
   1414,   23.5300407,   16.3027897,   7.71855927
   1415,   25.2862072,     15.25527,   7.43140984
   1416,    24.783062,   17.7684231,   7.38821173
   1417,   14.3794432,   1.03177738,  0.654565454
   1418,   20.9039097,   5.37153006,    4.7095952
   1419,   21.8226719,   7.29316759,    5.7755127
   1420,   23.6555653,   17.2520351,   6.72011614
   1421,   5.64719248,   8.68858528,    4.3033371
   1422,   6.18506289,   9.69886017,   3.31650305
   1423,   4.68065166,   10.0119076,   3.40070605
   1424,   3.80674434,     9.065588,   4.05762768
   1425,    5.2946434,   9.89370728,   5.08928442
   1426,   16.7736816,   5.84779549,    3.0578866
   1427,   18.2718525,   5.76930475,   3.34796643
   1428,    18.268219,    4.6831069,   4.69764948
   1429,   18.1867943,   3.21958113,   4.42127085
   1430,   19.0533562,   4.70910311,   2.34657788
   1431,    19.651041,   4.16599369,   3.62616396
   1432,   19.6145115,   6.01609564,    3.3380127
   1433,   27.9304943,   19.1151047,   8.69958401
   1434,   29.2662315,   17.8738766,   9.01984119
   1435,   29.1103497,   19.0466022,   8.31929207
   1436,   2.95805955,   5.79648495,   6.36106968
   1437,   1.99653196,   5.32649231,   5.48083019
   1438,   3.15968919,   6.39824247,   4.38635826
   1439,     3.714782,   5.44256783,    2.9664526
   1440,   2.09802604,   5.15198231,   4.04512739
   1441,   21.2228107,   7.44645119,   7.10077667
   1442,    17.882246,   4.19590855,   7.77625322
   1443,    13.661808,   13.2065649,   3.33555937
   1444,   13.9353228,    7.5360055,   2.70619059
   1445,    15.229764,   7.35473394,   1.40209806
   1446,    15.187664,   7.74663496,   3.28756309
   1447,   15.4342003,   5.99157763,   3.12271023
   1448,   13.2093725,   14.2063274,   3.42920709
   1449,    12.781251,   13.6607151,   4.99999809
   1450,   13.7108917,   11.6738548,   6.71293306
   1451,   15.4641228,   10.0811968,   3.41761708
   1452,   29.0224743,   16.6773663,   7.47190571
   1453,   27.8687305,   16.0524616,   7.12705088
   1454,   28.9994545,   18.0965939,    5.4150033
   1455,   28.9858322,   18.0655384,   6.68737745
   1456,   21.4845562,   6.47197104,   3.88757944
   1457,    21.482872,   5.18067312,   2.37418389
   1458,   22.2421188,   4.56877995,   3.17974067
   1459,   4.66071367,     7.355443,   6.84523726
   1460,    2.7640729,   8.21817112,   4.71415567
   1461,   4.05764723,   6.42775059,   5.95029306
   1462,   4.59662724,   7.35680342,   3.50270009
   1463,   3.46047759,   7.93519258,   2.86311126
   1464,   4.92363071,   8.73727512,   3.10911536
   1465,   3.71161604,   9.93223476,    7.1128211
   1466,   4.05458212,   12.1373386,   4.27958679
   1467,     4.362432,   11.8689041,   3.12376881
   1468,   2.79237056,   11.7558727,   3.20871878
   1469,   3.43789792,   10.2732468,   2.87900186
   1470,   2.24509192,   18.9215603,   4.69864941
   1471,   3.51166058,   18.9300022,    4.8167634
   1472,   2.24016047,   17.4686489,   5.42847633
   1473,          4.5,   17.6556816,   6.21832561
   1474,   3.36777806,   16.7623711,   6.29131269
   1475,   4.47403002,   15.9626293,     6.511199
   1476,   2.31940961,   15.6665707,   4.02242804
   1477,   11.2191353,   5.30979824,    6.6774044
   1478,   13.0026951,   4.15172243,   5.67035675
   1479,   12.8704443,    6.0967164,   6.63640738
   1480,    18.011034,   15.7947588,   7.28136063
   1481,   18.7244473,   17.6283321,   6.52169228
   1482,   18.0536308,    17.357172,   7.77253246
   1483,   13.8266726,   5.88170481,   3.01629806
   1484,   16.5382404,   15.0174141,    7.1461525
   1485,   16.6508656,   17.4143715,   7.86303711
   1486,   29.0708752,   17.9123993,   8.06801701
   1487,   16.3446312,   17.7123642,   4.86688662
   1488,   17.6496429,    17.712862,   4.74528122
   1489,    1.0462904,   6.65501928,   6.19520998
   1490,  0.996815562,   5.03268194,   4.82365036
   1491,   1.11691761,   6.54505348,   4.40732622
   1492,   5.33360958,   12.3586655,   2.32344913
   1493,   4.77196598,    14.227664,   1.69323647
   1494,   5.34836531,   10.7986584,    2.3833909
   1495,   6.17964888,   11.6195555,    1.4493134
   1496,   6.17469645,   13.0441675,   1.47260177
   1497,    12.030838,   15.3968773,   5.91616678
   1498,    11.799962,   17.3328781,    6.5495472
   1499,   7.26719809,   10.0910521,    6.7138834
   1500,    9.5916729,   16.6232071,   7.76422024
   1501,   10.7091389,   17.2894897,   7.74566174
   1502,   10.1947412,    15.209115,   7.80728912
   1503,    8.9017868,   14.1326523,   6.84523726
   1504,   5.89476252,   9.90781784,   6.94945431
   1505,   7.00640392,   10.4684477,   8.89861965
   1506,    7.2483716,   11.4758949,   8.20623875
   1507,   5.89477015,   14.1169291,    6.7923131
   1508,   22.1308632,   15.9423037,   6.75360346
   1509,   21.7219372,   15.2861462,   8.75321102
   1510,   22.8781738,   16.7803211,   8.72735596
   1511,   22.3395367,   14.2563858,   7.01992607
   1512,   23.2023926,    17.875967,   7.97629976
   1513,   23.8454571,   14.0576763,   6.84834957
   1514,   23.3090649,   15.3308792,   8.63587379
   1515,   24.6865578,    15.387023,   8.88779163
   1516,   10.4865427,   13.0921431,   1.69991231
   1517,   10.4282484,   11.5430098,   3.02529025
   1518,   10.0174923,   11.1539536,   1.08900893
   1519,   9.28272629,   14.3366022,   1.68192005
   1520,   11.8996477,   12.7438412,   3.10515118
   1521,   23.6665859,   16.0276737,   4.07527781
   1522,   26.6920891,   14.6436977,   6.86940145
   1523,    25.505188,   13.2857399,   6.78492832
   1524,   26.7402287,   12.8769665,   5.77617025
   1525,   25.4724426,   12.5795355,   5.45424843
   1526,   2.32862234,   7.81239367,   7.28592873
   1527,  0.994012594,   9.04476833,   8.08953571
   1528,   2.23955059,   9.20338821,   7.29412699
   1529,   1.11691761,   8.92600536,   6.77801514
   1530,   24.2646866,   12.8511257,   6.43829489
   1531,   14.7000008,   1.14285862,    4.5714283
   1532,   13.7519608,   3.18024468,   4.52397919
   1533,   14.4000006,   2.28571463,   3.42857051
   1534,   3.41803002,   6.76280737,    8.8239336
   1535,   2.25431228,   7.18979216,   8.89022827
   1536,   3.38558006,    8.2040062,   8.96108723
   1537,   3.52989626,   8.58686352,   7.80850172
   1538,   16.3332272,   2.36826849,   3.78014302
   1539,   15.5660715,    2.2976203,   4.84523773
   1540,   29.1736755,    19.046051,   9.14334679
   1541,    15.463089,   1.08377767,   6.73165131
   1542,   16.8226013,    1.1130445,   4.80861139
   1543,   14.6121883,   2.17372322,   5.91974735
   1544,   2.80263996,   8.68784428,   6.27668428
   1545,   7.28176594,   16.4250832,    5.3371129
   1546,   8.39655781,   17.7039948,   6.85470438
   1547,   7.30333805,   15.9205217,   6.65298939
   1548,   1.04012764,   7.60764742,   6.67710447
   1549,   1.95813406,     7.468472,   5.50705862
   1550,   5.89197063,   17.7194939,   4.61357546
   1551,   8.89977646,   17.7470646,   4.75457191
   1552,   28.9381657,   6.10947561,    7.4312005
   1553,   27.6150265,   6.53433561,   7.91261244
   1554,   14.5933867,   5.79840994,   8.17281151
   1555,   12.9095078,   5.54653406,   8.64490414
   1556,   12.7616186,   4.64651823,   7.75520897
   1557,   14.6627178,    3.3959043,    7.2732501
   1558,   2.30845809,   8.69047642,   8.92311096
   1559,   13.6036282,   2.86760402,   6.59812307
   1560,    25.696703,    15.428298,   2.49129486
   1561,   24.0666847,   15.8076468,   2.40523887
   1562,   28.0377064,   14.2808313,    5.1210351
   1563,   17.9480991,   8.81332397,    3.2877872
   1564,   19.5693111,   9.09512329,   3.33415699
   1565,   18.1607113,   8.39711094,   5.02976084
   1566,   4.74424791,   5.91069221,   8.53699684
   1567,   3.70691657,    5.9075985,   7.26714611
   1568,   17.8250942,   11.5765429,    6.8194499
   1569,   16.4847317,   8.53893566,    5.0962286
   1570,   7.61964273,    4.6734705,   3.94047475
   1571,   6.89906216,    3.4910686,   2.95277405
   1572,   7.64107275,   3.47959256,   4.72619057
   1573,   7.39980793,   2.35513902,   3.93097711
   1574,   5.54804134,   2.57654524,   3.66957855
   1575,           6.,   2.34524035,   5.51190424
   1576,   7.30000114,   3.42857075,   6.45238018
   1577,   22.6798038,   10.2475853,   3.15671825
   1578,   23.9190216,   9.71255589,   2.93180037
   1579,    24.096674,   8.60353661,   5.63859463
   1580,   3.48331356,   9.53388977,   8.92500019
   1581,   25.5633831,    9.0340538,   3.33075142
   1582,   22.5054951,   9.02960968,   5.59104109
   1583,   4.76471806,    8.5713644,   8.25050068
   1584,   4.75876284,   7.43173313,   8.56203556
   1585,   15.3875818,   14.2559338,   6.65437651
   1586,   16.3372746,   14.3566923,   3.42167616
   1587,   13.1799841,   15.9546099,   4.02165842
   1588,   1.03416634,   8.36024475,   4.93489504
   1589,   12.0943012,     1.096259,   3.39913273
   1590,   6.95785427,   4.57827377,   7.39373779
   1591,   5.88571501,   3.37414956,   7.90476036
   1592,   4.76665068,   3.36853981,   7.15909386
   1593,   22.3385334,   12.5465574,   3.23963881
   1594,    21.205658,   11.3163815,    3.1323297
   1595,   9.53052044,   3.89319706,    5.5892663
   1596,   8.90091991,   3.81556892,   3.23222566
   1597,   7.72482538,    2.2484684,   5.54637241
   1598,    8.6522913,   2.28038621,   4.09943295
   1599,   13.5652189,   1.14397216,   4.51122236
   1600,   12.2102203,   2.37148952,   3.89112544
   1601,   9.12857246,   2.25850391,   7.23809385
   1602,   9.66944504,   2.28015637,    5.6485219
   1603,   8.43225574,     3.401191,   7.27085543
   1604,   10.7463779,   2.99309731,   7.24542522
   1605,    11.490757,   3.88251925,    5.8223443
   1606,   7.40178633,   14.1326523,   6.84523726
   1607,   17.6449528,   6.57188606,   5.51153946
   1608,   17.1808681,   7.52608776,   4.31044054
   1609,   1.03254151,   15.2370491,    3.3324523
   1610,  0.994012594,    16.187624,   1.91046393
   1611,   1.04234529,   14.7223177,   1.91525841
   1612,   26.3147125,   18.8347301,   4.99343634
   1613,   25.1287041,   18.8144283,    3.7964952
   1614,   18.7206211,   4.95883369,   7.28333282
   1615,   24.9728966,   19.0428696,     8.895895
   1616,   26.3777542,  0.835457206,   0.99802351
   1617,   17.0718193,   4.75244188,   2.17735243
   1618,   26.8267345,    13.354167,   4.13503313
   1619,    28.712904,   14.1714907,   3.76770353
   1620,   28.7978001,   12.9523554,   3.76724553
   1621,   25.2142868,    8.5374155,   8.66102695
   1622,   23.7279072,   8.41870975,   8.72940445
   1623,    25.285717,   6.93877697,   8.57143021
   1624,   19.7124996,   3.48809648,   4.78571415
   1625,    11.507535,   3.47953558,   3.71379137
   1626,   12.9385061,   4.03466272,   2.50476623
   1627,    11.951623,    2.4191153,   5.77763748
   1628,   14.8835144,   3.93344021,   3.32168508
   1629,    28.873991,   14.4906378,   6.41223001
   1630,   27.6754742,   13.7668781,   6.97737026
   1631,   28.0063744,   14.7132034,   8.74141788
   1632,   5.77142763,   2.25850391,   7.23809385
   1633,   4.59035826,   2.69307876,   2.87034965
   1634,   12.6389704,  0.791097999,  0.643598676
   1635,   2.00019956,   3.82997346,   4.50614119
   1636,   26.5040569,   18.9750195,   8.36250591
   1637,   28.8840866,   6.78860044,   3.60662484
   1638,   14.2469625,   2.17331839,   1.55947304
   1639,    15.470192,   1.11770594,   1.84611535
   1640,   14.6776447,   1.10680199,   3.05590057
   1641,    7.0413866,   6.95997858,   3.36535835
   1642,   7.04681015,   6.82622671,   5.35922146
   1643,   7.79192209,   5.64699268,   5.11122179
   1644,   7.56406403,   5.89098406,   3.20348716
   1645,   3.48936415,   4.27128267,   2.00971389
   1646,   2.23955059,   3.47971225,   3.29053688
   1647,   3.25087214,   2.16431093,   3.18976498
   1648,    2.0914073,   2.40046167,   1.14862013
   1649,   2.12763309,   3.86084795,   1.08257639
   1650,   20.5249596,   18.9457703,   5.66882515
   1651,    3.6157639,   3.16132879,   1.08827162
   1652,   1.70670092,   6.33064032,   7.79579592
   1653,   12.9934864,   2.09516406,    1.0330236
   1654,   1.99700511,   5.23667002,    1.0141269
   1655,   3.46582317,   5.20910597,   1.08585441
   1656,   2.23955059,   4.91767454,   2.70587134
   1657,   14.1947203,   3.45514488,   2.26406026
   1658,    4.4678216,   5.38129187,   1.67971194
   1659,   5.03430319,   4.00918293,   2.63380742
   1660,    12.374999,   14.2857151,   6.66666412
   1661,   11.1941061,   13.7543554,   7.50677252
   1662,   10.4213638,    13.165328,   6.67779207
   1663,    12.401227,   15.7914295,    7.4155612
   1664,   11.7799215,   16.6323242,   5.30228758
   1665,   13.4231033,   16.5244408,   5.60061121
   1666,   13.8293724,   15.4772921,   6.02142954
   1667,   6.94535208,   10.7980165,   2.36492538
   1668,   7.91071463,   11.3435411,   1.33897126
   1669,   7.75493002,   14.2285538,    1.7723943
   1670,   6.32041121,   14.2496433,   1.69792652
   1671,   21.5497494,   18.0512905,   1.01486802
   1672,   21.4843121,   16.6813908,   1.08689201
   1673,   22.9843159,   16.6813717,    1.0879885
   1674,   22.3848248,     17.26371,   3.02600288
   1675,   19.9934921,   18.0828419,   1.04964948
   1676,   21.7381458,   19.0976524,  0.777738452
   1677,    20.475935,   18.9518242,   1.03696299
   1678,   22.9925556,   18.0810566,   1.06329381
   1679,   1.11691761,   7.49743462,   3.22198296
   1680,   2.24269557,     8.499506,   2.63170743
   1681,   11.4920368,   4.61043644,   2.46441102
   1682,   27.7617493,   6.98505545,   2.96323538
   1683,   27.7023144,   9.62602615,   3.09923172
   1684,   23.0843563,   18.8688107,   9.13026142
   1685,   18.1368122,   2.70582414,   2.40819383
   1686,    13.415019,   3.36122346,   1.11662436
   1687,    26.354023,   10.0091972,   2.78703213
   1688,   27.7729187,   18.9491749,   4.54741812
   1689,   21.4980412,   16.6685066,   8.92634583
   1690,   28.9860916,    16.680748,   5.36125469
   1691,   27.0054951,   18.0181522,   2.61351967
   1692,   27.9551296,   18.5293694,   3.34291363
   1693,    25.984993,   12.4147892,   2.75961614
   1694,   24.2882042,   12.9644527,   3.15048337
   1695,    25.321701,   11.2546902,    3.0934453
   1696,   26.4872322,   11.2927113,   2.20646167
   1697,         25.5,   13.0952368,   1.66666627
   1698,   26.4045258,    11.715723,   1.00503004
   1699,    25.285717,   11.2244902,   1.42857134
   1700,   23.8460369,    11.345438,   1.75271273
   1701,   26.5650463,   13.0952368,   1.16291428
   1702,   16.8537655,   10.3521442,   1.25324214
   1703,   17.2793884,   9.60969925,   2.27890182
   1704,   16.7029037,    11.485693,   1.79283798
   1705,   15.4816093,   10.0984325,   1.73258829
   1706,   15.8768682,   2.68188381,   2.27039409
   1707,   14.9560871,   4.37207556,   1.19866121
   1708,   17.9872303,   11.4604645,    1.6843468
   1709,   16.7142868,   8.77550983,   1.42857134
   1710,   18.2591705,   10.1552219,   1.41494226
   1711,   17.4440269,   7.98145199,   2.29804754
   1712,   18.2462292,   8.74036312,   1.44237721
   1713,   5.38277054,   19.0308933,   8.97165298
   1714,   25.3125038,   5.77381039,   6.66666412
   1715,   25.6559181,    4.5616498,   4.03590107
   1716,   27.2550106,   4.57205963,   4.47180223
   1717,   12.3928337,   12.9257669,   6.70042896
   1718,   22.4336319,   11.3962755,   2.33682919
   1719,   22.2837009,    12.448988,   1.36792266
   1720,   12.6197815,   1.19646668,   1.53106129
   1721,   21.1434174,   11.0879068,   1.24012041
   1722,   20.8608704,    9.9804821,   1.70821106
   1723,   8.83019733,   11.6424351,   3.40156126
   1724,   9.31074715,   10.0217075,   3.35448647
   1725,   5.32608986,   6.74866104,   2.33735943
   1726,   4.42353487,   7.33349037,    1.7715677
   1727,    6.0016818,   5.98402977,   3.06245494
   1728,   6.27863455,   5.99343443,    1.4270283
   1729,   6.05090952,   7.24606991,   1.48135841
   1730,   24.4880276,   18.0936222,   8.89906502
   1731,   29.0107651,   18.9981098,   2.40333462
   1732,   4.90577888,   5.59971666,   3.37654161
   1733,   4.95990944,   8.43992519,   1.22825491
   1734,   18.4496765,   18.8560905,   4.78574848
   1735,    16.981699,   18.8852596,   4.91306782
   1736,   17.6997471,   18.8561745,   5.77232409
   1737,   18.9621067,   17.7126141,   4.76671124
   1738,   17.3830013,    17.331913,   3.06895208
   1739,   17.6989784,   18.8584118,   3.77538824
   1740,   15.8015509,   7.33514166,    5.0566864
   1741,   3.65529442,   2.17054963,   6.82509756
   1742,    3.5027709,   13.1156387,   2.11648154
   1743,   2.34002423,   13.0575686,   2.65847731
   1744,   3.42052317,    1.1519953,   4.03704357
   1745,   4.83764505,   1.04638314,    4.6980257
   1746,   3.90686631,   12.4326715,    5.7363739
   1747,   4.99064541,    1.0533725,   6.31385803
   1748,   4.57746649,   1.94009972,   8.47744846
   1749,   19.1363201,   16.1363678,   6.90175629
   1750,   18.4993057,   16.6628742,     8.925107
   1751,   19.5997543,   17.3319778,     7.906353
   1752,   20.7570496,   15.6719418,   7.65816736
   1753,   20.2975216,    17.586874,    6.4649868
   1754,   8.32743549,   9.19952488,   7.70009613
   1755,    9.2142868,   10.2040825,   8.57142639
   1756,   6.24907684,   8.72257423,   8.20353603
   1757,   7.98075485,     8.447505,   8.79699802
   1758,   15.2456999,   4.65763664,   2.10636401
   1759,   27.9863625,   16.1839828,   1.09596026
   1760,   26.5056458,   16.2343941,   1.22115147
   1761,   21.9680386,   19.0780602,   8.98150826
   1762,    20.390295,   19.0450878,   8.99256039
   1763,   15.3703575,    15.919591,   7.42192316
   1764,   14.8266525,   17.3896828,   6.57376862
   1765,   14.7754297,   17.6408367,   4.73749733
   1766,   16.4456902,   18.0823288,   6.83486509
   1767,   9.29029179,   5.64170027,   2.66970825
   1768,   16.4207859,   8.45248032,   6.74016476
   1769,   11.9464273,   8.16326523,   3.39285588
   1770,   26.6524067,   13.5639315,    2.3613832
   1771,   26.5162601,   14.7023792,   1.09335494
   1772,   27.9982929,   14.7610912,   1.07339406
   1773,   27.9899464,   13.3304434,    1.0752753
   1774,   15.9628162,   8.06323051,   2.28623891
   1775,   16.6071415,   7.24489737,   3.21428466
   1776,   17.8225403,   6.64357376,   2.14954877
   1777,   18.3031311,   7.45996046,   1.27966237
   1778,   28.8565922,   15.3512964,   2.48636532
   1779,   13.7319336,   13.0653448,    6.8849082
   1780,   16.4641132,   11.9403744,   6.78731155
   1781,   13.9863806,   14.2508707,   6.68236446
   1782,   21.0563602,   7.74766302,    1.1457696
   1783,   21.4941635,   19.0587368,   8.25175858
   1784,   23.9816895,   11.7397318,    3.3155129
   1785,   22.6406765,   11.6589565,   8.27122974
   1786,   21.1181145,   11.7182922,   8.35360813
   1787,   21.1840172,   10.4502239,   8.51229668
   1788,   19.7215538,   11.5634727,   8.63509464
   1789,    21.809248,   9.18740273,   7.68213415
   1790,   13.8030605,   15.4830189,   2.64675236
   1791,   14.2997551,   17.3323994,   3.03117371
   1792,   25.1254883,    16.784317,   1.21270263
   1793,   26.5079098,   18.0801678,   1.07009697
   1794,   13.2754736,   17.7612972,   4.76290464
   1795,   6.64932442,   10.8756485,  0.997609258
   1796,    6.3631134,   9.96594429,   1.63666594
   1797,   7.86683035,   9.98465347,   1.76238537
   1798,    20.753294,   14.1020184,   8.55373478
   1799,    22.022047,   16.5094242,   5.40908194
   1800,         25.5,   13.9285727,   3.33333206
   1801,    27.804203,    17.932991,   1.00147831
   1802,   20.8644962,   17.2192383,   7.62041187
   1803,   10.2857132,   8.36734772,   8.57142639
   1804,   12.5649605,   7.62890625,   7.69417095
   1805,   11.8864155,   8.48698235,   6.88316345
   1806,   11.6117945,   8.71151257,   8.75918961
   1807,   13.8584452,   7.14849806,    6.8327632
   1808,   11.8991575,   7.03972006,   6.78872538
   1809,   14.7857141,   8.36734772,   8.57142639
   1810,   23.8832035,   17.3309059,   3.14445376
   1811,   23.5663338,    7.9542737,   2.34675074
   1812,   22.7678566,   9.18367386,   1.20457125
   1813,   22.6201878,   8.61038589,   3.30368519
   1814,   22.4787045,   7.11728907,   3.17493677
   1815,   21.8122883,   8.31551075,   2.33748674
   1816,   22.8187752,    7.3023572,   1.47015035
   1817,      22.7479,   1.13807356,   6.56509972
   1818,   20.5718288,   1.16859078,    6.5299511
   1819,    21.995142,   1.07564056,   5.37459469
   1820,   21.1148262,   1.02841377,   4.25428391
   1821,   22.9120655,   12.8917542,   6.61937284
   1822,   22.6863708,    12.985486,   8.29583454
   1823,   23.5098858,   1.18639112,   5.56117582
   1824,   24.6900425,   15.1219511,  0.948364377
   1825,   22.7910786,   15.5708971,   2.50649357
   1826,   18.0784874,   13.8356476,   3.15551162
   1827,   18.4872532,   15.4274693,   2.69952035
   1828,    21.621254,   15.4673376,   2.76075816
   1829,   20.4932957,   16.4719486,   4.32591677
   1830,   20.4984531,   17.6949692,   4.79698515
   1831,   21.9619884,   17.7121086,   4.80955172
   1832,        24.25,   14.2857151,   1.66666818
   1833,         25.5,   14.2857151,   1.66666627
   1834,   21.8458061,   17.6610394,   6.53735113
   1835,          4.5,   17.3340225,   7.75627327
   1836,   3.37390089,   18.9317112,   6.82279062
   1837,   1.05576158,   16.4831963,   6.73729897
   1838,   1.00532711,   15.8598528,   7.90996361
   1839,   20.7931175,   7.57046223,   3.07279062
   1840,   23.4417858,   5.56648731,    2.5783124
   1841,   23.9330006,    9.7538271,   6.92886257
   1842,   22.3928604,   8.46938705,   6.78571129
   1843,   9.91714096,   7.61303139,   2.50316811
   1844,    24.132864,   3.02140832,   5.39125681
   1845,   23.7010784,   2.21603942,   4.10780382
   1846,   25.2833557,    2.3512814,   4.54950237
   1847,   24.4326477,   1.04873383,   4.74303102
   1848,   4.48018694,   1.05913055,   3.44017386
   1849,   19.7058067,   2.35075498,   3.83025241
   1850,      18.4375,   2.28571653,   5.51190424
   1851,   3.08708358,   14.8562212,   7.73793888
   1852,   3.49791956,   13.8113422,   8.92969036
   1853,   3.64967513,    12.768013,   7.04861307
   1854,          4.5,   14.0476198,   8.33333206
   1855,   19.5976715,   2.61647868,   7.21911716
   1856,   19.8210621,   2.32704091,   5.52497864
   1857,   26.7016182,   3.40342188,   3.75193453
   1858,   26.6100006,   5.49307251,   2.74920249
   1859,   20.0663357,   15.8080425,   2.38644075
   1860,   4.67432785,   15.3866959,   7.70720673
   1861,   6.55691528,   16.6929874,   7.70878792
   1862,   6.28728294,   15.3004246,   7.54936266
   1863,    1.1172787,   15.5897141,   4.66482735
   1864,   5.91974211,   17.6507034,   6.72484064
   1865,   10.7636003,   7.38619184,   1.45916271
   1866,   12.3371773,   7.31929493,   1.49430346
   1867,   12.3175602,   5.83258915,   1.45226073
   1868,   10.7327127,   5.80279207,   1.47611356
   1869,   10.2441244,   4.52830124,    3.1444118
   1870,    1.1683042,   11.7411947,   3.23027396
   1871,   5.67438984,   5.81582642,   6.67747307
   1872,   7.02740049,    1.1306529,   5.24591255
   1873,        7.875,   1.07142937,    6.7857151
   1874,   6.47500038,   1.07925677,   6.23809624
   1875,   9.47500134,   1.07925677,   6.23809624
   1876,       8.4375,     1.107144,   5.67856979
   1877,   9.17725468,   1.18440914,   4.53617382
   1878,   7.98488998,  0.980331838,   4.74425125
   1879,   2.42280221,   14.9184647,   2.58274007
   1880,   1.14047217,   13.2204685,   3.22852945
   1881,    2.1834569,   13.8968868,   1.07688868
   1882,   27.3576889,   2.24813962,   4.28688622
   1883,   26.4163876,   2.30132008,   5.30333662
   1884,   25.1797466,   4.84524584,   2.35143495
   1885,   24.6613464,   3.43763542,   4.07614803
   1886,   27.7531147,   3.93084812,   2.27399898
   1887,    26.292696,   3.63085604,   2.24899268
   1888,   27.8528156,   2.66107535,   2.38915062
   1889,   26.1115417,   2.22389722,   3.00166368
   1890,   24.9000015,   3.42857265,   2.28571248
   1891,   17.7505875,   13.9927654,   8.46740341
   1892,    17.032505,    16.592308,   8.91596603
   1893,   26.6301804,   14.2108917,   8.73170757
   1894,   28.9061413,   15.6789303,    6.1509819
   1895,   19.3832436,    17.331665,   3.08783364
   1896,    19.119566,   18.9130478,   2.36352873
   1897,   19.1996994,   18.8560066,   3.79905486
   1898,   10.1070738,   17.7613621,   6.36930561
   1899,    10.411355,   2.09474587,    3.3704586
   1900,   9.62292385,  0.985916913,   2.95200825
   1901,   10.3861418,   1.05151975,   4.42734814
   1902,   21.9898052,   18.0936527,   8.71727657
   1903,   11.2724257,   17.6469784,   4.65431833
   1904,   19.9496346,   18.8559227,   4.81431961
   1905,   19.0031185,    18.955492,   5.61896086
   1906,   2.02029729,    14.552125,   5.50705862
   1907,   23.4846191,   7.10715103,   6.71664238
   1908,   12.8905439,    2.2390542,   2.14959645
   1909,    2.2397995,    15.872406,   6.36403036
   1910,   3.36740351,    16.641077,   7.70878029
   1911,   2.37011766,    17.656229,   7.51524782
   1912,    1.1174593,    16.778532,    5.3861413
   1913,   4.56247663,   17.7151794,   4.55230188
   1914,   16.9444561,   3.21914983,   8.79594612
   1915,   16.1166401,   5.78467083,   8.15172577
   1916,   17.5750389,   5.63752508,   8.29672813
   1917,   21.8829918,   15.0660248,  0.884986818
   1918,   25.2500019,    5.7142868,   8.33333206
   1919,   26.4088593,   5.42575932,   8.90771866
   1920,   26.2042351,   6.76056099,   8.92930603
   1921,   25.2370834,   4.19192171,   7.39032078
   1922,   23.4747429,   17.7323818,   4.75913811
   1923,   19.5523338,   11.7597189,   3.20254278
   1924,   17.0126743,   12.6955957,   3.15525126
   1925,   16.3502464,   10.5194826,   6.88060951
   1926,   26.6345367,   4.64588356,   1.18341494
   1927,   26.6140594,    3.2582984,   1.13123786
   1928,    16.505022,    6.9779973,   6.67199993
   1929,  0.997433126,   19.0422764,   5.22288465
   1930,  0.995301008,   18.9786987,   3.79598212
   1931,   13.9796247,   9.44950008,    3.3805058
   1932,    20.494421,   18.1058674,   8.67285061
   1933,   15.9773302,    3.3080163,   8.01045227
   1934,   5.93749857,   2.02380896,   8.79542923
   1935,   7.00447702,   3.33254766,   8.91763878
   1936,    7.6785717,   2.21088386,   7.38095236
   1937,   26.5705719,   1.11694777,   3.97228622
   1938,   26.4019604,   1.03732622,   2.28133225
   1939,   27.9615116,   1.39703584,   2.93084455
   1940,           6.,   4.48979473,   8.57142639
   1941,   3.59391212,   13.8902016,   1.08658028
   1942,   2.61922884,   16.7836514,    2.5342896
   1943,   28.0871792,   2.65313768,   5.46743679
   1944,   14.0522022,   15.9023552,   7.42654085
   1945,   12.8600674,   17.3505707,   2.97596765
   1946,   11.4960995,   17.2920742,   2.94666648
   1947,   11.6216974,    18.919136,   2.27900434
   1948,   12.4958534,   18.0873432,   1.01532209
   1949,   11.5587893,   18.9073944,    4.0076623
   1950,   12.3998499,   15.6185656,   2.50413704
   1951,   13.8748112,   16.7851753,   1.16013408
   1952,   26.3942261,   15.4323759,   8.95610428
   1953,   28.8603325,   15.3851795,   4.12664175
   1954,   24.9525833,   1.01425827,   2.14750791
   1955,   25.8337727,    2.2399075,     1.202878
   1956,   10.9468803,   10.3114548,   3.36887193
   1957,   22.8799686,     3.383214,   4.23750257
   1958,   22.7642536,   3.08490372,   2.43742633
   1959,   18.6917362,   6.90043211,   7.65192652
   1960,    18.190382,    8.1168766,   6.82423496
   1961,   17.1098785,   7.62942696,   7.63523817
   1962,   18.1638317,   6.72256804,   8.80693722
   1963,    17.991684,    7.9414711,   8.84118843
   1964,   24.9755726,   18.9913254,   7.02556992
   1965,   25.1964397,   18.7751141,   5.93465328
   1966,   26.0010834,   16.6709175,   8.91164875
   1967,   22.3409195,   6.29769802,   7.24921846
   1968,   14.0949478,   9.13804531,   7.68582821
   1969,   15.6055183,   9.09549141,    7.7162714
   1970,   14.8068686,   9.82715607,   8.61127663
   1971,   12.9816093,   9.00360298,   8.89980602
   1972,   22.7213459,   1.06913185,   4.59730911
   1973,   22.3865089,   1.44153571,    3.3641839
   1974,   5.40393257,   10.7979631,  0.873199105
   1975,   4.74811506,   10.0175743,   1.70277607
   1976,   5.49999952,   11.0714302,   6.66666412
   1977,   7.38949871,   12.7740831,   6.71985388
   1978,   1.18864524,   5.29432201,   6.78522873
   1979,   2.27530313,   5.01943684,   7.40597582
   1980,   3.51650453,   4.87848425,   8.07484245
   1981,   18.9948177,   18.1051064,   8.66487694
   1982,   25.2330399,   1.17134249,   5.56915712
   1983,   24.0718307,   11.6543951,   7.06244373
   1984,   28.8800907,   11.4285727,   3.75565934
   1985,    28.018631,   12.5013905,   5.03576231
   1986,   28.8481884,   8.20475101,   3.69868565
   1987,   19.9945602,   19.0579758,   8.24048615
   1988,   20.5020409,   18.9564495,   6.95395422
   1989,   19.0081272,   18.9543285,   6.93793106
   1990,   16.9494591,   12.6776037,   1.31961846
   1991,   18.3565159,   12.3303967,   2.48867607
   1992,   23.1219673,   9.14034081,   7.84828281
   1993,   24.2484722,   10.3346844,   8.41853046
   1994,   22.8583012,   10.5730305,   8.72245312
   1995,   19.8155174,    16.559927,   9.00473404
   1996,   21.9819984,   8.99464512,   8.92490864
   1997,    22.903471,   7.67393446,   7.72935343
   1998,   25.0606003,    1.1099261,    3.7367568
   1999,   27.7401772,   14.4301662,   3.16060448
   2000,   7.38334942,    17.333622,    2.9366765
   2001,    24.603653,   1.78305542,   2.55812144
   2002,   28.9154072,   10.5493784,   1.02288544
   2003,    10.737113,   8.54432106,   1.70904911
   2004,   10.5600891,   10.0088673,   1.77353454
   2005,   12.1759348,   9.89146137,   3.01342106
   2006,   28.9303856,    3.3034842,     3.477916
   2007,   28.8845348,   5.36016989,   3.53035355
   2008,   7.28571463,   14.0816326,   8.57142639
   2009,   7.28571463,    12.653059,   8.57142639
   2010,    27.804697,   12.2633305,   6.83906507
   2011,   27.9941807,   11.9067888,    8.9059248
   2012,    29.034256,   12.1826429,   7.50262976
   2013,   28.0112381,   13.3386831,   8.82586861
   2014,   22.5986195,   5.95449305,    1.3262068
   2015,    25.356884,   11.6310635,   6.50525093
   2016,   10.1250257,   18.9081974,   5.51876068
   2017,   8.32923889,   15.7125282,   7.40279865
   2018,   7.23610687,   17.5213318,   6.07619667
   2019,   17.5934048,   18.8808937,    7.1309123
   2020,   17.5591373,   17.9849796,   8.82478905
   2021,   17.0949459,   9.13804531,   7.68582821
   2022,   16.2143154,   8.38914299,   8.57865143
   2023,   16.0262413,   10.2122049,   8.96225834
   2024,   19.5300503,   7.41048574,   1.60181975
   2025,   19.5517254,   5.98311186,   1.57038653
   2026,   3.84222698,    10.132616,   1.10777652
   2027,   2.30406833,   6.53562593,   2.68437481
   2028,   5.11719322,    10.643714,   9.21218014
   2029,   6.38919306,   7.42285681,   6.82687235
   2030,   8.54589081,   4.65198135,   1.28583646
   2031,   10.0472269,   4.48646164,   1.25022256
   2032,   10.1089935,   3.15904093,   4.30211496
   2033,   9.95726395,   3.09176755,   2.48913789
   2034,   8.79107761,    1.5597223,   2.05202436
   2035,   16.6264725,   13.3268099,   6.77639246
   2036,   16.2609997,   14.0576468,    8.5414629
   2037,   14.9505997,   14.3405352,   8.31022358
   2038,   15.6998949,   15.3331032,   8.78417492
   2039,   12.4841671,   2.04507351,   7.68235445
   2040,    11.869092,   3.14305353,   8.73321247
   2041,   10.6443071,   2.03159451,    8.6986227
   2042,   10.0296698,   4.73397636,   8.80018711
   2043,   11.5546541,    4.7102356,   8.77843571
   2044,   9.98007393,   3.29350948,   8.86877728
   2045,   12.4492445,   10.9621124,   1.09460914
   2046,   12.7256536,   12.0428133,     2.314852
   2047,   12.0077448,   11.1830597,   3.09363914
   2048,   13.6324406,   10.1288414,   1.61662698
   2049,   14.6998329,   18.8565044,   3.71376848
   2050,   15.7163219,    17.332159,    3.0500648
   2051,   8.50403214,    18.921526,   5.42832804
   2052,   15.5788412,    7.4355526,   7.67427444
   2053,   10.2383537,   14.0569582,   8.58716106
   2054,    11.999999,   14.2857151,   8.33333206
   2055,   11.3931856,   12.0598936,   7.51066446
   2056,   12.0281467,   13.0940781,   8.35092163
   2057,    10.749999,   12.8571424,   8.33333206
   2058,   1.05576158,   16.4831963,   3.64899802
   2059,   16.2104397,   7.00579548,   8.57082272
   2060,   15.1815338,   8.86950016,   1.55648947
   2061,   7.12416458,   18.9277859,   5.57123232
   2062,   7.02307129,   18.8942986,   6.78185368
   2063,   16.7095585,   7.39516163,   1.36322129
   2064,   7.72142172,   5.97577095,   1.43296683
   2065,   9.48534584,   18.8971367,   8.06606674
   2066,   10.1195459,   18.9683342,    6.8175683
   2067,   18.0577698,   15.2585955,   8.86687279
   2068,   17.0909481,   15.7027454,   2.38165021
   2069,   18.8903198,   19.0447693,   8.99118805
   2070,   15.2491779,   11.5690298,   8.47818947
   2071,   7.01036978,   4.75526762,   1.06795335
   2072,   6.61785698,   4.68245125,   2.21182036
   2073,   7.45218849,   3.18323374,   1.54045463
   2074,   23.7046432,   2.27924991,   7.79627466
   2075,   9.32040405,   6.12658596,   1.35626042
   2076,    23.515625,   3.31845307,   1.07032883
   2077,   9.36950874,   8.75010872,    1.4093554
   2078,    23.255373,    12.807498,   2.35343981
   2079,   24.2857151,   12.8911581,   1.33897126
   2080,   21.7902145,   13.4254179,   2.40466499
   2081,   19.4947815,   3.37416649,   1.87593889
   2082,   18.3499985,   3.52380919,   1.12468553
   2083,      19.0625,   4.73809433,   1.07925653
   2084,   5.51746511,   1.98420048,    1.0605098
   2085,    7.3279438,    17.706234,   4.64614916
   2086,   6.59494829,   13.4237566,   7.68582821
   2087,   2.23635221,   13.4996214,   7.35569715
   2088,   1.60205984,   12.1356592,   2.15545321
   2089,   3.19877505,    11.271553,   1.97778845
   2090,   2.16844249,   10.7786903,   2.62686181
   2091,   2.05250216,   13.8646917,   8.91113949
   2092,   1.71034002,   14.4181557,   8.02036095
   2093,   3.37099719,   15.5249023,   8.85579014
   2094,   20.5552235,   3.47270393,   2.66377544
   2095,   22.1763325,   4.36639738,   1.22646856
   2096,   1.11691761,   10.3545771,   3.22198296
   2097,   18.6405754,   12.7517128,   1.24584234
   2098,   19.0905895,   11.4449081,   1.74492145
   2099,   19.7110023,   13.2023392,   1.77827203
   2100,   19.6025524,    1.2324872,   6.62890863
   2101,   21.1756477,   1.07754278,   7.99215221
   2102,   8.96131611,    11.192728,   1.76939368
   2103,   9.88328075,   17.3331051,   2.97447014
   2104,   10.9999161,   15.8091707,   2.32996535
   2105,   16.7300816,   1.17744637,   3.38007236
   2106,   8.01562595,  0.989033401,   9.00360489
   2107,        7.875,   2.14285827,   8.92857265
   2108,   5.62680769,    18.933733,    6.8610363
   2109,   18.1808701,   5.93033028,   1.40114594
   2110,   12.6970329,   15.0799274,   8.97402477
   2111,   12.4472418,   16.6608906,   8.89112473
   2112,   1.78412747,   17.6557732,   2.92189026
   2113,    1.0011996,   19.0110283,   2.36184692
   2114,   2.40542936,   18.9299297,   2.63728309
   2115,   2.99999952,   18.5695724,   1.93524981
   2116,    11.999999,   4.57142878,   1.14285636
   2117,   20.6915379,   5.96237755,    1.5264169
   2118,   6.78125763,   15.3869581,   1.23080885
   2119,   3.93905783,   19.0447044,   1.00080752
   2120,   6.48438215,   16.6815662,   1.07592905
   2121,   5.78571463,    12.653059,   8.57142639
   2122,          4.5,   12.6190472,   8.33333206
   2123,   16.1256771,   4.66422129,   8.79765224
   2124,   21.0574856,   2.30115104,   3.07937717
   2125,     28.95331,   18.9542694,   4.11844158
   2126,   15.9694901,   1.02851069,  0.928547859
   2127,   9.62500095,  0.892227352,   9.16666794
   2128,          10.,   1.01127481,   8.09523678
   2129,    11.015624,   0.99639529,   9.01096725
   2130,   23.7464771,   14.0769005,   8.61460209
   2131,    25.285717,   14.0816326,   8.57143021
   2132,   26.6300945,   11.4285727,    8.7443409
   2133,    26.452261,   10.3816719,   8.96239853
   2134,   11.8392859,   14.1326523,   3.15476108
   2135,    4.0116539,   1.00165915,   2.28469777
   2136,   11.7050142,   13.4558306,   1.09854281
   2137,   2.12230468,   9.58204937,   1.07464826
   2138,  0.699394584,  0.840301096,   7.80705357
   2139,  0.910008967,   0.80803746,   9.06865692
   2140,   2.34880757,    3.0404191,   8.91950798
   2141,   2.30845809,   4.67454386,   8.92311096
   2142,  0.968375385,    13.363452,   1.02604187
   2143,   7.41974592,   1.18465996,   3.36480713
   2144,  0.968375385,   6.22059679,   1.02603996
   2145,   3.76556611,    19.013422,   9.01062107
   2146,   3.49892282,   19.0496731,   8.11702251
   2147,    2.2494607,   19.2862282,   9.28966808
   2148,    18.119545,    1.7936573,   3.43718648
   2149,    18.089859,    1.1350255,   4.58967543
   2150,   13.8334637,   4.58023119,   1.20094728
   2151,   13.8337851,   5.89049006,   1.18926406
   2152,   5.99188566,   9.70626736,   8.88597107
   2153,   27.9960976,   0.54487741,   9.00035572
   2154,   22.8968048,   13.9014816,   1.23959792
   2155,   25.0019531,   3.33147407,   1.07018816
   2156,   26.9450684,   1.96653128,   1.43983841
   2157,   13.7739191,   11.8705034,   1.07019961
   2158,   19.5622463,   3.78279233,   8.92938232
   2159,   22.1497097,   18.8588161,   3.96037316
   2160,   25.0249996,   4.73809433,   1.07925653
   2161,   28.8582115,   16.8017006,   3.72903204
   2162,   29.0625668,   2.27100992,   8.97158813
   2163,   29.1557751,  0.808866024,   9.10141087
   2164,   5.86597061,   12.7323637,   6.91852093
   2165,   5.78571463,   14.0816326,   8.57142639
   2166,   11.9688225,   12.2457981,   1.26493108
   2167,   19.6150246,   9.59042454,   8.78916168
   2168,   18.6867676,    5.1707592,   8.92026043
   2169,   12.8998194,   18.0946636,   6.76493359
   2170,   12.5998201,    17.332798,   7.84350538
   2171,   15.2828283,   16.5859871,   8.95979881
   2172,   16.1078377,   17.8668022,   9.00986862
   2173,   12.8827095,    19.032732,   8.97880554
   2174,   3.65489149,    1.1141125,  0.754374027
   2175,   4.77711773,   2.26857948,  0.788807809
   2176,   17.0942669,  0.984791934,   9.03058243
   2177,    15.515625,   0.99639529,   9.01096725
   2178,   23.7857132,   6.93877697,   8.57142639
   2179,   17.3903446,   19.0444469,   8.98981285
   2180,         17.5,  0.981829345,   8.09523678
   2181,  0.994012594,   4.75905323,   1.91046393
   2182,   1.11691761,   4.64029074,   3.22198296
   2183,   1.11691761,   6.06886387,   3.22198296
   2184,   13.9294624,   18.9499207,   6.47479248
   2185,   13.3982868,   9.14071369,   1.15144968
   2186,   3.37499928,   2.14285827,   8.92857265
   2187,    3.4251411,   4.14290285,   8.92479134
   2188,  0.994012594,   10.4733391,   8.08953571
   2189,   2.24461102,          10.,   8.92087269
   2190,   8.55000114,   18.9081059,   3.89107227
   2191,  0.994012594,   1.91046429,   6.66951847
   2192,   2.24461102,   11.0688648,    1.0791254
   2193,   2.21823287,   8.11645603,   1.13007486
   2194,   15.1982641,   11.2209635,   6.92090034
   2195,   17.8343983,   12.8236513,   8.30832767
   2196,   16.6112022,   11.6498003,   8.29339504
   2197,   3.35714197,    12.517004,   8.75062656
   2198,  0.990221441,   2.00875068,   8.97398281
   2199,   29.2837276,   9.10172653,   9.09574413
   2200,   17.7678833,   9.79180622,   8.57973862
   2201,   29.0308628,   19.0383759,    5.5874877
   2202,   2.06632113,    15.364584,   8.92969036
   2203,   2.25842834,   15.8014822,   7.61891031
   2204,   1.10688782,    14.744277,   6.78238583
   2205,   28.9406204,   13.3912344,   1.03977168
   2206,   2.62213421,    16.905386,   8.75343132
   2207,   23.5163898,   18.9580345,   7.00622082
   2208,   6.11249161,   15.4289627,   2.63586164
   2209,   22.0020428,   18.9580002,    6.9747591
   2210,   23.0482979,   19.0164127,   8.05010033
   2211,   28.9094772,   17.7058506,   2.66979933
   2212,   25.0074444,   18.0810566,   1.06329381
   2213,   28.9406204,   14.8198042,   1.03977168
   2214,   28.9406204,   11.9626656,   1.03977168
   2215,   29.0083256,   14.9128551,   8.44957066
   2216,   28.8767433,   17.9791241,   4.02346373
   2217,    18.515625,   0.99639529,   9.01096725
   2218,   24.9879017,   18.9438057,   1.06542981
   2219,   26.1810703,   19.1697388,  0.744942725
   2220,   28.9870148,   13.1433191,   5.87644625
   2221,   2.23967218,   3.56814933,   7.84730625
   2222,   28.8565922,   12.4941549,   2.48636532
   2223,   3.39630556,   2.94397783,   7.86729383
   2224,   28.9900856,   10.6142931,   7.48699045
   2225,    22.661602,   10.2606173,   1.38617718
   2226,   24.3003349,   5.86176872,   1.40815818
   2227,   25.4485855,   6.05607462,   1.80236042
   2228,   20.5644855,   8.97587013,   1.24190104
   2229,   15.5614758,   19.0336456,   9.16426563
   2230,   14.1285381,   19.1359882,   9.17694092
   2231,   14.4873657,   19.0393085,   8.16787148
   2232,   18.6973839,   9.08562279,   7.78134966
   2233,   19.9749184,   8.10124397,   8.91731167
   2234,   28.8565922,   13.9227276,   2.48636532
   2235,    28.913065,   16.6634178,   2.21464634
   2236,    19.879158,   6.71078014,   8.88862801
   2237,   18.7741756,   10.6790295,   8.49780083
   2238,   28.8995056,   8.63241577,   6.20766068
   2239,   19.9593678,   1.13307762,    4.7720871
   2240,   19.9980392,   16.6685066,    1.0721246
   2241,   12.9359751,   14.8228827,   1.00926769
   2242,   12.4843569,   16.6814976,   1.08031881
   2243,   12.6232491,   13.5205708,   2.42239499
   2244,   11.2560968,   15.0058069,  0.826557696
   2245,    10.499999,   14.2857151,   1.66666627
   2246,   28.9154072,   16.2636623,   1.02288544
   2247,   28.9910469,   17.7058983,   1.00410271
   2248,   7.86562395,   17.3434238,   7.82389784
   2249,   9.93665314,   19.0053196,  0.941110849
   2250,   8.46838856,   18.9646778,  0.964914262
   2251,   17.5804977,   11.8595238,   8.93322468
   2252,   7.83629417,   15.3713789,   8.77802563
   2253,   28.8565922,   11.0655851,   2.48636532
   2254,   15.2387562,    11.173193,   1.24284363
   2255,   26.4153957,   13.1212788,   8.91678715
   2256,   21.2618694,   14.2913704,   1.71816111
   2257,   21.9225121,   13.4218941,   1.03971851
   2258,   20.7124596,   12.8008623,   1.35820639
   2259,   28.8769665,   9.96715069,   6.24898529
   2260,   28.9803829,   9.51506519,   8.18289471
   2261,   29.0038166,   1.01495755,   3.52082539
   2262,    27.817482,   1.07823443,   4.22457266
   2263,   29.0059681,   1.03340018,   4.88801622
   2264,   29.0076904,   1.91208708,   4.89481926
   2265,   7.41027308,   16.5502129,   8.94523907
   2266,   9.49687576,   15.2410669,   8.92948151
   2267,   9.00000095,   16.5714302,    8.8999958
   2268,   21.3552666,   12.9522877,   8.25236702
   2269,   27.9714603,   3.25707269,   1.01926148
   2270,   22.8288765,   2.21591401,   8.84702587
   2271,   2.40754271,   1.19204652,  0.712922335
   2272,   11.2446642,   1.01678193,    1.9141525
   2273,  0.998267412,   3.34839249,   0.99657172
   2274,   21.4073277,   2.26903558,   8.95121288
   2275,   1.08972979,   1.92980385,   2.34022117
   2276,   19.6322384,   1.97149491,   8.63476467
   2277,    19.455471,   8.87553692,   1.73186815
   2278,  0.968375385,   4.79131079,   1.02604187
   2279,   12.7265825,   1.18228078,   5.49520063
   2280,    13.730607,   1.10978353,   6.58948088
   2281,   13.0509996,   3.39095974,   8.89096165
   2282,   14.2124996,   2.17857289,   7.75000191
   2283,  0.968375385,   9.07773876,   1.02603996
   2284,   4.84031677,   3.33233285,     1.120978
   2285,    3.5262475,   6.67931652,   1.06056881
   2286,   2.02326941,   6.68535376,   1.07546151
   2287,    22.949543,   18.8555737,   4.87145662
   2288,   21.4495907,   18.8557491,    4.8428874
   2289,   22.0031185,   18.9585323,   5.67845201
   2290,   13.8122149,   12.7503633,   1.82786083
   2291,   13.5185261,   14.2815609,   1.71679282
   2292,   20.6996555,    18.855835,   3.82747602
   2293,  0.998267412,   7.63375044,   0.99657172
   2294,   3.46394563,   8.34425545,   1.22915375
   2295,  0.996536195,   10.5055952,  0.922976136
   2296,   26.4166088,   3.62498975,   8.25372028
   2297,  0.994012594,   9.04476833,   1.91046393
   2298,   0.92523998,   12.0546408,  0.804641306
   2299,   2.12230468,   12.4391975,   1.07464826
   2300,  0.994012594,   13.3304815,   1.91046393
   2301,  0.984189808,   14.7973118,  0.983676136
   2302,   4.71428585,   4.48979473,   8.57142639
   2303,  0.968375385,   16.2198792,   1.02604187
   2304,    14.658782,   4.59808064,    8.6657362
   2305,   4.05161572,   11.8621616,   1.14339232
   2306,   2.13661981,   19.0593262,  0.607859373
   2307,   2.02470994,   18.0883236,   1.00729895
   2308,  0.969517469,   17.6748066,  0.961588681
   2309,  0.747835636,   19.2836514,   6.44398832
   2310,   24.2065048,   7.31863356,    1.4618479
   2311,  0.816374481,   19.3216228,  0.860172451
   2312,   3.97788715,   1.04313362,   7.94750977
   2313,   5.49972391,  0.926839769,   8.07857895
   2314,   1.00092399,   7.59334946,   8.09610748
   2315,   5.98009062,   2.39068842,   2.36949944
   2316,   6.45569897,   3.67357326,   1.08255351
   2317,   20.9571991,   8.38234711,   8.34199333
   2318,   5.10766315,   12.8051758,   1.13683999
   2319,   1.11691761,   8.92600536,   3.22198296
   2320,   5.79076719,   11.3776331,    8.3289423
   2321,   4.54042149,   9.89759731,   8.33744431
   2322,   5.09502029,   15.1800203,   1.00926769
   2323,   7.17783356,   4.60724401,   8.72640896
   2324,   8.56409168,   3.20258665,   8.90602016
   2325,   8.72762203,   4.50915909,   8.56574821
   2326,   1.99700511,   16.6652431,    1.0141269
   2327,   2.12230468,   15.2963352,   1.07464826
   2328,   3.49883175,   18.0930138,  0.973910391
   2329,   26.7765484,   11.9915237,   7.64831591
   2330,   3.37517977,   16.7862282,   1.09874237
   2331,  0.987272143,   17.6125298,   1.92379475
   2332,   20.9128189,   17.3739548,   3.15659666
   2333,   5.23307467,  0.750495791,   1.05019677
   2334,   4.40510178,   1.93250799,   1.57512021
   2335,   16.7626724,   5.95360756,   1.53021383
   2336,   2.24999857,  0.714287102,    9.2857151
   2337,   7.15123844,   2.01476336,   1.03124118
   2338,   1.00333929,   13.5732393,   8.99144268
   2339,   14.1293268,   12.6893702,   8.92595768
   2340,   1.15637779,   4.25532961,   5.99951887
   2341,   1.04277289,   3.31941462,   5.25329351
   2342,   11.5534039,   2.65644431,   1.82030714
   2343,   19.6035328,   2.11436486,   1.26614916
   2344,   21.0085754,   2.16425586,   1.57579863
   2345,   21.1253986,    3.5124433,   1.10361481
   2346,    20.666605,   4.64800406,   1.21580589
   2347,   5.70000029,   4.57142878,   1.14285636
   2348,   7.98363924,   18.9918766,   7.93984032
   2349,   11.6282282,   18.9378014,   6.93766117
   2350,   7.12302065,   18.9229126,   2.22821259
   2351,   3.37089252,   11.0222692,    8.8730154
   2352,   8.00878811,   15.2427425,   1.07532668
   2353,   5.47638607,   18.9884892,  0.979793787
   2354,   7.99729156,   18.0900784,  0.994583964
   2355,   6.47818518,  0.970902503,  0.974220157
   2356,   8.21063614,   1.29033673,  0.941502333
   2357,   5.43902397,    1.0387876,   2.32287884
   2358,   11.4122419,   1.92616093,     1.025352
   2359,   8.90077972,   3.42267227,  0.882161021
   2360,   9.59502125,   15.1800203,   1.00926578
   2361,   14.9907951,   17.9711914,   8.65002441
   2362,   16.9953632,   19.0564518,   8.21796322
   2363,   8.28758621,   8.65145493,   1.06420791
   2364,    10.000021,   1.90190899,   1.06969976
   2365,   6.88275957,   19.0312653,   8.97308636
   2366,   19.4999981,          10.,   1.66666627
   2367,  0.989430904,   14.8672247,   8.98497009
   2368,   6.49780035,   18.0910492,  0.987697184
   2369,   6.96845055,   18.9667339,   0.95729208
   2370,   5.59261131,   18.9248524,   2.27157021
   2371,   7.02500772,   18.9185848,   3.90825295
   2372,   23.5249481,   18.9484234,   5.72808838
   2373,     23.60326,  0.958590329,   1.01927483
   2374,   24.4494953,   18.8553982,    4.9000206
   2375,   6.69260406,   6.79846096,   8.90609169
   2376,   9.75964451,  0.917216539,   0.69268018
   2377,   11.0609751,   15.1800203,   8.99073219
   2378,   6.46251917,   18.8792973,   4.64401102
   2379,   8.00413227,   18.8946896,   4.73957253
   2380,   5.52501345,   18.9321423,   5.37249327
   2381,   5.51250744,   18.9250641,   3.90076375
   2382,   15.2129726,   12.8101664,   8.23297977
   2383,   20.0348282,  0.995741546,   9.01304245
   2384,   19.0244255,   1.08548415,   7.98457766
   2385,   10.7142849,   11.6326561,   8.57142639
   2386,   22.1442108,   6.94742537,   8.70273495
   2387,   12.4982767,   19.0006752,   7.96414518
   2388,   6.93902397,    1.0387876,   8.03426361
   2389,   9.49804592,   16.6685219,   1.07116497
   2390,   8.62256336,   18.5621414,   2.24512553
   2391,    9.4968071,   18.0891552,   1.00150108
   2392,    9.2142868,   11.6326561,   8.57142639
   2393,   16.5247021,   3.43339181,   1.14394724
   2394,   16.0138206,   4.77085018,   1.07742655
   2395,   11.4504519,   1.00274992,   0.89796412
   2396,   19.7388992,   12.7266665,   8.29881477
   2397,   23.6995697,   18.8554859,   3.88430905
   2398,   13.1998749,   18.8566685,   5.68616009
   2399,   12.9682064,   18.9479599,  0.987788439
   2400,   11.7296791,   5.76516581,   8.26045036
   2401,   12.1295824,   8.50797749,   1.77418828
   2402,    9.5444994,   18.8768539,   4.62362289
   2403,   29.0570488,   1.01347721,  0.986952245
   2404,   29.0006618,    1.0333451,   2.02427793
   2405,   12.2551575,     3.539217,   7.15568495
   2406,   24.2706947,   8.73886776,   1.50386965
   2407,   11.7876081,   9.76346111,   1.43393028
   2408,    25.530159,    8.9024477,   1.65359771
   2409,   25.4649086,     10.09548,   1.70735013
   2410,    13.874999,   2.14285827,   8.92857265
   2411,          4.5,   11.4285727,   8.33333206
   2412,   10.9963303,   18.0882473,   1.00841832
   2413,   11.4682674,   18.9535465,  0.980164349
   2414,   10.0915956,   18.9192524,   2.32452464
   2415,    12.593751,   2.02380896,   8.99608707
   2416,   10.9843569,   16.6815128,   1.07922041
   2417,     14.84375,   3.36309528,   8.92888832
   2418,   10.8644028,   1.21089196,   6.58759928
   2419,   10.1609097,     18.84589,   3.71128869
   2420,          8.5,   1.01127672,   8.09523678
   2421,   16.0793629,   1.99116135,   1.03338659
   2422,   11.6484995,   1.32961059,   4.67519712
   2423,    17.245779,  0.934416354,  0.860356748
   2424,   9.00000095,   1.90476143,   8.57142639
   2425,    15.413909,   2.12960339,   8.95026302
   2426,   13.1236162,   17.8937111,   8.94567966
   2427,   13.0499678,   18.8939266,   3.98383451
   2428,   20.3463745,   15.2782631,   8.80241776
   2429,   23.6961823,   4.59369659,    1.1825161
   2430,   21.3788986,   1.03213263,   2.10423398
   2431,    16.199789,   18.8563404,   3.74220109
   2432,   15.9680872,   18.9367638,   1.00303471
   2433,   23.9210854,   2.22935128,   1.13799918
   2434,   17.5031242,   4.75892782,   1.07130742
   2435,   23.4400425,   14.8838558,  0.948364377
   2436,   8.76997852,   6.90908432,   8.61960697
   2437,   24.5156269,   0.99639529,   9.01096725
   2438,   19.6849728,   1.04834247,   3.30068278
   2439,   13.1133776,   7.28292274,   8.78674793
   2440,   18.2732468,   14.3103466,   1.65205085
   2441,   18.5087891,   15.2427349,   1.07573712
   2442,   16.9980412,   16.6685143,   1.07185102
   2443,   17.0950184,   15.1800203,   1.00926769
   2444,   18.4843311,   16.6814251,   1.08470285
   2445,    14.499999,   1.01127672,   8.09523678
   2446,    12.999999,   1.01127672,   8.09523678
   2447,    14.015625,   0.99639529,   9.01096725
   2448,   12.3678961,   10.2112131,   8.56243801
   2449,         8.75,   12.8571424,   8.33333206
   2450,   15.4789295,   18.8668842,   4.73119211
   2451,   10.8154793,   16.5043907,   8.91152668
   2452,   15.4949045,    18.085537,   1.02909184
   2453,   14.4840746,   18.9469757,   1.01954281
   2454,   14.6208429,   18.9166908,   2.31284904
   2455,    20.989706,   5.66461611,   8.32087708
   2456,   28.9277439,   19.0778809,   1.02178705
   2457,   13.6765604,   14.2744961,   8.28118324
   2458,   15.4843454,   16.6814632,   1.08251178
   2459,   14.1103239,   17.3755398,     7.884902
   2460,   16.9944344,   18.0846367,   1.03595769
   2461,   13.8999166,   16.6188068,   8.92950058
   2462,   24.9049797,   4.81997728,   8.99073219
   2463,   17.3542423,   1.03664589,   2.16862631
   2464,   25.0019531,   3.33147407,   8.92981148
   2465,   15.2342072,   5.97785378,   1.39891684
   2466,    14.506711,   18.9347858,   5.55808592
   2467,   25.9799976,   18.0016537,   8.87746906
   2468,  0.994012594,   3.33048201,   1.91046393
   2469,   13.1212702,   18.9179115,   2.29593253
   2470,   13.9953804,   18.0864391,   1.02221274
   2471,   29.1647663,   10.7617245,   9.10359192
   2472,    17.468029,   18.9311485,   1.01065493
   2473,   21.8125019,  0.654761493,    9.0188036
   2474,   21.6575336,  0.976447642,   1.02585375
   2475,   20.2011719,  0.951047957,   1.00741875
   2476,   20.0573673,   1.00417137,   1.90806961
   2477,   22.0571384,   2.01114702,   1.12559962
   2478,   28.9843006,   2.46657753,   2.30694103
   2479,   28.9997272,   3.80939293,   2.04053903
   2480,     29.01544,   3.76639056,   1.00122368
   2481,   28.9521999,   1.93570054,   3.42741513
   2482,   28.9947529,   5.44522619,   5.58234549
   2483,   23.8548584,   1.01253653,   3.38096189
   2484,   18.4939613,   18.0837402,   1.04281032
   2485,   18.9759789,   18.9560471,   1.03124869
   2486,   27.9547844,   16.3000927,   8.93148041
   2487,   17.6199894,    18.914259,   2.34664631
   2488,   18.7929249,    1.0645541,   1.34369552
   2489,   18.5425529,  0.740885854,  0.629264593
   2490,     26.21875,  0.788219035,   9.10745716
   2491,      26.5625,   1.11496949,   8.09523678
   2492,      25.9375,   2.26190567,   8.92920399
   2493,   24.1630306,   11.5759048,   8.61335945
   2494,   20.0950203,   15.1800203,   1.00926769
   2495,   19.8036633,   14.2894812,   1.63436651
   2496,   24.2810783,   12.8566294,   8.32067966
   2497,   19.2418137,   14.0536594,   8.46474266
   2498,   6.05532789,   7.55413818,   8.37327671
   2499,    23.015625,  0.989033401,   9.00360489
   2500,   10.9435759,   18.9468956,   4.80583286
   2501,   18.4158783,   2.23819542,   8.90238285
   2502,   11.5249901,   18.9376602,   5.49103498
   2503,    22.578125,   18.8346367,     2.141083
   2504,   27.6664333,   18.9855022,   6.36512899
   2505,  0.994012594,   10.4733391,   1.91046393
   2506,   23.5000019,   1.01127672,   8.09523678
   2507,   24.3750038,   2.14285636,   8.92856884
   2508,   25.8646717,   18.8896389,    2.4760313
   2509,  0.994012594,   6.18762589,   1.91046393
   2510,   28.8670845,   6.78320313,   2.39233565
   2511,   27.9941349,   6.18768501,   1.05951214
   2512,   27.9913692,   7.61493921,   1.07904363
   2513,    28.930685,    6.6364913,   1.02207017
   2514,   23.3153362,   19.0241127,  0.873693228
   2515,   29.3140869,   16.2894306,   9.12496662
   2516,   27.8802681,   18.9239388,   2.05094886
   2517,   23.2217865,   1.03024757,   2.10406852
   2518,   6.56365967,   18.9691143,   8.09311962
   2519,   7.07678223,   17.8676815,   8.88387394
   2520,    8.7857151,   14.0816326,   8.57142639
   2521,        24.25,          10.,   1.66666818
   2522,   10.2446928,   5.75831318,   8.39280415
   2523,   27.7639618,   5.35049534,   8.96709251
   2524,   29.0370541,    6.2682395,   9.18381596
   2525,   29.0049686,   5.08952808,   8.99286079
   2526,   29.0047264,   1.03344393,   6.31242561
   2527,         25.5,   9.76190472,   8.33333206
   2528,   26.4961205,   9.88552094,   1.17901945
   2529,          4.5,   18.8577518,   5.51368666
   2530,   5.00581169,   18.9813442,   7.99839687
   2531,    27.829731,   19.0387955,  0.891134322
   2532,   23.3769627,    12.048522,   9.20745659
   2533,   24.3817043,   18.9094257,   2.41410756
   2534,   21.9169617,   4.79377365,   9.00148392
   2535,   27.7639618,   1.09137511,    5.7727499
   2536,   29.0321312,   3.75393796,   8.12904739
   2537,   29.0123539,   1.91653013,   7.68160963
   2538,    28.906498,   3.38517141,   4.89855528
   2539,   29.0131741,   1.91730917,    6.2869153
   2540,   27.6817722,   1.09228921,   1.75126469
   2541,   27.9952564,  0.673382699,  0.919838667
   2542,   6.02106714,   1.20808136,   4.58828831
   2543,   27.9969215,   4.76044035,   1.03987432
   2544,    26.521822,   6.21367359,   1.09772575
   2545,   27.8834076,   9.09196854,  0.932430208
   2546,   28.9642143,   8.06489658,   1.04124057
   2547,   20.3301163,    4.9393878,   8.98353004
   2548,    27.194788,   8.57594204,   2.05350304
   2549,   28.8601074,   8.20485306,   2.42253923
   2550,   28.8585987,   9.62935638,   2.43775511
   2551,   27.9899025,   10.4714918,   1.07829499
   2552,   28.9316196,   9.42910957,   1.06779373
   2553,   27.9863625,   11.8982716,   1.09596026
   2554,   7.98436928,   16.6815472,   1.07702553
   2555,   1.63574672,   13.0559425,   8.48687363
   2556,   4.87499952,   3.21428514,   8.92857265
   2557,   28.8720112,   2.23424649,  0.982115984
   2558,   28.9829407,   5.20808554,   1.01470268
   2559,   1.03338146,   3.35378742,   6.73761797
   2560,   2.49999881,   1.01127672,   8.09523678
   2561,    7.1578517,   5.66788864,   8.19920731
   2562,        23.75,    5.7142868,   8.33333206
   2563,  0.994012594,   1.91046429,   5.24094534
   2564,  0.998700678,    1.0149709,   3.64224625
   2565,  0.998700678,    1.0149709,   2.21367526
   2566,   1.02051449,   1.97955608,    3.7891314
   2567,   2.03029108,    1.0503453,   3.35842776
   2568,   1.05548596,   3.27583265,   3.51707983
   2569,  0.936199129,    1.0149709,   5.01129341
   2570,   16.5770645,   12.8461199,   8.34514809
   2571,  0.714637041,  0.879675746,   6.31738138
   2572,   2.28737974,   2.22528458,   6.26836061
   2573,  0.992513239,   5.14845324,   9.06229877
   2574,   2.37350225,   1.04214931,   6.54833126
   2575,    0.9917835,   1.93486059,   8.06525803
   2576,  0.994012594,   3.33048201,   8.08953571
   2577,   6.98486757,  0.985424697,   1.85386479
   2578,   13.9936285,   18.8664169,    4.6885643
   2579,  0.900866508,    5.6310339,   7.93866968
   2580,  0.889595687,   3.68904948,   9.16523838
   2581,   10.7142849,   10.2040825,   8.57142639
   2582,  0.994012594,   11.9019127,   8.08953571
   2583,  0.998700678,   10.6434669,   8.98502731
   2584,  0.994012594,   7.61619711,   1.91046393
   2585,    1.0233022,    6.3778615,   8.96143723
   2586,   7.68723917,   13.1957111,   1.33797932
   2587,   2.42894602,   6.05406761,   8.89713001
   2588,   14.1585522,   15.2343397,   8.94409466
   2589,  0.996534288,    12.350832,    9.0770216
   2590,  0.998267412,   7.84208441,   9.00342655
   2591,  0.998700678,    9.2148962,   8.98502731
   2592,  0.996456385,   18.0918617,   6.68615007
   2593,   2.24680972,    18.924015,   6.11307049
   2594,   20.6191425,   18.9118347,    2.3803997
   2595,  0.963839293,   14.0976143,   7.86806917
   2596,  0.998700678,   17.7863216,   8.98502731
   2597,  0.871221542,    16.423027,   8.96009922
   2598,   2.23134303,   11.3988104,   8.92479134
   2599,   8.62663555,    17.868103,   8.90625572
   2600,   10.1224813,   17.8619385,   8.96182823
   2601,  0.972067714,   17.8113861,   7.99359655
   2602,   0.99454844,   18.0900459,   5.26437235
   2603,  0.992714643,   18.0882969,   3.82875133
   2604,    26.593483,   1.04024518,   5.34721136
   2605,   26.4429989,   1.08802295,   6.67269945
   2606,  0.747691214,    19.283514,   7.86823988
   2607,   2.99999952,   18.0975666,   8.58583832
   2608,   1.99931407,   19.0489235,    8.1058445
   2609,   17.6808033,   2.09447598,   1.01562619
   2610,  0.819834948,   19.3445606,   9.23021412
   2611,   27.6447964,   3.22293139,   7.97683954
   2612,   29.0645218,   19.0332642,   6.76722145
   2613,   16.1204128,    18.915472,   2.32975435
   2614,   14.1384201,   15.2465057,   1.03114796
   2615,   4.27637386,   16.5046616,   9.00848103
   2616,   4.98636007,   15.2147627,   8.91274738
   2617,    8.3827467,   19.0316353,   8.97451496
   2618,     11.38272,   19.0323677,   8.97737694
   2619,   11.6221266,   17.8626156,   8.96759415
   2620,   8.50457001,   18.9354286,   6.79565763
   2621,    5.6235466,   17.8599129,   8.94458485
   2622,   28.8708439,    5.3558259,   2.34405041
   2623,   9.88273335,   19.0320034,   8.97594357
   2624,   10.9969501,   19.0534229,    8.1730175
   2625,   15.7418776,   18.9524899,   7.28397894
   2626,   16.0648899,    18.899889,   5.70815039
   2627,   5.59305429,   16.2145805,   8.97147846
   2628,   6.50300169,   15.2594204,   8.94556522
   2629,    18.236742,   1.10559332,   6.61315489
   2630,   28.7683067,   11.4153662,   6.27754688
   2631,   12.7485008,   13.6692476,     9.194314
   2632,   18.4949608,   19.0572128,   8.22922134
   2633,   24.2731686,   1.18936515,   6.44971228
   2634,         25.5,   11.6666679,   8.33333206
   2635,   25.4629517,   12.9111338,   8.21982193
   2636,   5.89883661,   5.98654366,   8.34836006
   2637,   29.0130825,   13.7957325,   8.98550987
   2638,   29.0166664,   12.3666048,    8.9981966
   2639,   22.2158642,   14.0493116,   8.60339355
   2640,   28.9570274,   4.71697617,    5.0314064
   2641,   26.5167007,   7.60451031,   1.09063184
   2642,   29.0194111,   6.67591143,   8.24846745
   2643,   29.0157776,   7.99051809,   8.99518299
   2644,   29.0040302,   8.05431938,   8.23739624
   2645,   27.9835854,   10.5010424,   8.71113777
   2646,   27.7632236,   1.09032428,   7.18179893
   2647,   29.0107994,   3.52216148,   9.12322235
   2648,   29.1345177,  0.731851757,    7.8933506
   2649,   12.9281311,   12.1505232,   9.12387657
   2650,   25.4470119,   7.37931108,   1.61212897
   2651,    15.749999,   1.01127481,   7.85714197
   2652,   27.6293278,   2.36580944,   9.01471043
   2653,   27.7154655,   4.02944231,   8.83740711
   2654,   26.2334175,   8.52648449,   8.95994663
   2655,   27.8854675,   8.99308109,     8.983078
   2656,   27.7694378,   7.08873653,   8.94425774
   2657,   12.6289063,  0.940983832,   9.09124756
   2658,    11.499999,   1.01127672,   8.09523678
   2659,   13.8012476,   7.39860678,   1.27523458
   2660,   4.09292459,   17.7991905,   8.93660355
   2661,     5.015625,  0.989033401,   9.00360489
   2662,   6.51562548,   0.99639529,   9.01096725
   2663,   3.51562476,   0.99639529,   9.01096725
   2664,   9.27995586,    10.064086,   1.65174878
*Element, type=C3D4
    1, 1039, 1040, 1041, 1042
    2, 1039, 1043, 1044, 1045
    3, 1039, 1043, 1045, 1046
    4, 1039, 1047, 1046, 1045
    5, 1048, 1049, 1050, 1051
    6, 1048, 1052, 1053, 1054
    7, 1048, 1055, 1056, 1052
    8, 1048, 1051, 1050, 1056
    9, 1057, 1058, 1059, 1060
   10, 1057, 1061, 1062, 1063
   11, 1057, 1059, 1062, 1060
   12, 1057, 1064, 1065, 1061
   13, 1065, 1057, 1058, 1064
   14, 1066, 1067, 1068, 1069
   15, 1070, 1066, 1071, 1072
   16, 1066, 1069, 1073, 1067
   17, 1066, 1071, 1074, 1075
   18, 1066, 1074, 1071, 1072
   19, 1066, 1074, 1072, 1076
   20, 1066, 1075, 1076, 1073
   21, 1077, 1078, 1079, 1080
   22, 1077, 1080, 1081, 1082
   23, 1077, 1083, 1084, 1085
   24, 1086, 1087, 1088, 1089
   25, 1090, 1091, 1092, 1088
   26, 1090, 1093, 1094, 1087
   27, 1093, 1095, 1096, 1090
   28, 1090, 1092, 1091, 1096
   29, 1090, 1088, 1097, 1091
   30, 1090, 1098, 1099, 1100
   31, 1090, 1099, 1091, 1097
   32, 1101, 1102, 1103, 1104
   33, 1105, 1106, 1107, 1108
   34, 1109, 1101, 1110, 1111
   35, 1112, 1113, 1114, 1115
   36, 1116, 1115, 1117, 1118
   37, 1115, 1118, 1116, 1119
   38, 1115, 1120, 1117, 1118
   39, 1115, 1121, 1117, 1107
   40, 1115, 1117, 1121, 1122
   41, 1123, 1124, 1125, 1126
   42, 1123, 1127, 1128, 1129
   43, 1130, 1131, 1132, 1086
   44, 1132, 1130, 1133, 1134
   45, 1135, 1132, 1130, 1131
   46, 1136, 1137, 1138, 1139
   47, 1140, 1141, 1142, 1131
   48, 1143, 1144, 1145, 1146
   49, 1131, 1140, 1147, 1086
   50, 1131, 1148, 1140, 1135
   51, 1131, 1147, 1149, 1132
   52, 1131, 1150, 1149, 1151
   53, 1152, 1153, 1154, 1155
   54, 1153, 1156, 1155, 1157
   55, 1145, 1158, 1159, 1160
   56, 1161,  780,  786, 1162
   57, 1163, 1152, 1164, 1153
   58, 1153, 1157, 1165, 1166
   59, 1153, 1165, 1157, 1167
   60, 1168, 1169, 1170, 1171
   61, 1171, 1172, 1173, 1174
   62, 1171, 1175, 1173, 1172
   63, 1171, 1176, 1172, 1177
   64, 1171, 1174, 1178, 1177
   65, 1171, 1177, 1178, 1169
   66, 1179, 1180, 1181, 1182
   67, 1179, 1180, 1183, 1184
   68, 1185,  632,  638,  631
   69,   85,  786, 1162, 1186
   70, 1179, 1187, 1188, 1183
   71, 1179, 1189, 1190, 1191
   72, 1191, 1192, 1188, 1179
   73, 1193, 1194, 1195, 1196
   74, 1193, 1195, 1194, 1197
   75, 1161, 1162,  786, 1186
   76, 1193, 1166, 1198, 1199
   77, 1193, 1200, 1201, 1199
   78, 1193, 1195, 1166, 1202
   79, 1193, 1198, 1197, 1200
   80, 1203, 1144, 1204, 1205
   81, 1206, 1207, 1208, 1209
   82, 1206, 1210, 1211, 1208
   83, 1206, 1212, 1213, 1207
   84, 1206, 1213, 1212, 1214
   85, 1206, 1207, 1210, 1208
   86, 1215, 1216, 1217, 1218
   87, 1219, 1220, 1184, 1180
   88, 1180, 1221, 1222, 1183
   89, 1220, 1223, 1179, 1180
   90, 1180, 1220, 1224, 1219
   91, 1180, 1221, 1224, 1225
   92, 1226, 1227, 1134, 1228
   93, 1226, 1134, 1227, 1229
   94, 1226, 1230, 1129, 1229
   95, 1231,  858,  877,  857
   96, 1232, 1134, 1233, 1234
   97, 1226, 1134, 1234, 1235
   98, 1226, 1134, 1235, 1228
   99, 1236, 1237, 1235, 1226
  100, 1238, 1237, 1235, 1236
  101, 1239, 1240, 1241, 1242
  102, 1243, 1244, 1245, 1246
  103, 1239, 1241, 1247, 1248
  104, 1247, 1239, 1240, 1241
  105, 1242, 1140, 1141, 1239
  106, 1239, 1141, 1248, 1249
  107, 1239, 1140, 1141, 1249
  108, 1113, 1241, 1060, 1250
  109, 1059, 1058, 1115, 1113
  110, 1113, 1114, 1251, 1112
  111, 1113, 1240, 1241, 1247
  112, 1113, 1114, 1240, 1251
  113, 1252, 1253, 1254, 1255
  114, 1256, 1257, 1258, 1259
  115, 1258, 1256, 1260, 1257
  116, 1256, 1261, 1262, 1263
  117, 1256, 1264, 1262, 1265
  118, 1256, 1264, 1259, 1263
  119, 1256, 1263, 1259, 1266
  120, 1267, 1268, 1146, 1269
  121, 1269, 1044, 1270, 1271
  122, 1269, 1267, 1272, 1146
  123, 1273, 1274, 1215, 1275
  124, 1269, 1145, 1272, 1276
  125, 1276, 1277, 1272, 1269
  126, 1245, 1278, 1248, 1279
  127, 1269, 1270, 1276, 1277
  128, 1179, 1183, 1180, 1187
  129, 1180, 1187, 1222, 1182
  130, 1180, 1222, 1280, 1182
  131, 1281, 1189, 1282, 1181
  132, 1246, 1278, 1279, 1283
  133, 1181, 1155, 1284, 1281
  134, 1179, 1192, 1187, 1182
  135, 1181, 1189, 1192, 1281
  136, 1285, 1252, 1286, 1287
  137, 1281, 1155, 1182, 1181
  138, 1288, 1081, 1177, 1289
  139, 1255, 1286, 1252, 1253
  140, 1289, 1169, 1177, 1176
  141, 1289, 1177, 1290, 1291
  142, 1289, 1081, 1291, 1292
  143, 1289, 1169, 1290, 1177
  144, 1289, 1290, 1293, 1292
  145, 1041, 1047, 1294, 1295
  146, 1296, 1297, 1298, 1299
  147, 1041, 1300, 1301, 1040
  148, 1302, 1174, 1295, 1041
  149, 1303, 1302, 1174, 1295
  150, 1304, 1174, 1040, 1305
  151, 1174, 1040, 1305, 1041
  152, 1245, 1306, 1142, 1307
  153, 1295, 1174, 1305, 1041
  154, 1041, 1040, 1305, 1042
  155, 1041, 1308, 1302, 1174
  156, 1302, 1300, 1301, 1041
  157, 1309, 1310, 1311, 1312
  158, 1309, 1313, 1127, 1314
  159, 1315, 1309, 1316, 1317
  160, 1309, 1314, 1317, 1318
  161, 1309, 1318, 1317, 1315
  162, 1309, 1127, 1312, 1314
  163, 1319, 1320, 1321, 1322
  164, 1320, 1323, 1324, 1319
  165, 1325, 1087, 1326, 1147
  166, 1319, 1321, 1327, 1328
  167, 1319, 1329, 1320, 1330
  168, 1319, 1329, 1331, 1320
  169, 1332, 1333, 1262, 1264
  170, 1332, 1333, 1264, 1334
  171, 1332, 1333, 1335, 1262
  172, 1332, 1335, 1336, 1337
  173, 1332, 1338, 1339, 1340
  174, 1341, 1342, 1343, 1344
  175, 1342, 1343, 1344, 1345
  176, 1345, 1346, 1347, 1342
  177, 1345, 1347, 1348, 1349
  178, 1342, 1350, 1351, 1345
  179, 1352, 1342, 1350, 1351
  180, 1345, 1347, 1349, 1351
  181, 1345, 1347, 1353, 1342
  182, 1345, 1347, 1351, 1353
  183, 1352, 1354, 1355, 1356
  184, 1234, 1086, 1133, 1357
  185, 1165, 1358, 1353, 1352
  186, 1352, 1358, 1351, 1359
  187, 1352, 1354, 1360, 1355
  188, 1352, 1361, 1354, 1342
  189, 1352, 1354, 1361, 1165
  190, 1352, 1360, 1354, 1165
  191, 1302, 1362, 1070, 1363
  192, 1302, 1174, 1308, 1303
  193, 1302, 1364, 1365, 1303
  194, 1239, 1366, 1367, 1248
  195, 1302, 1368, 1303, 1308
  196, 1302, 1364, 1369, 1070
  197, 1302, 1300, 1362, 1370
  198, 1302, 1364, 1303, 1368
  199, 1371,   29,  186,  185
  200, 1372, 1373, 1374, 1375
  201, 1372, 1376, 1377, 1378
  202, 1372, 1321, 1374, 1322
  203, 1372, 1373, 1377, 1376
  204, 1372, 1379, 1380, 1374
  205, 1381, 1237, 1382, 1383
  206, 1102, 1384, 1385, 1386
  207, 1387, 1381, 1388, 1382
  208, 1382, 1383, 1387, 1381
  209, 1381, 1389, 1390, 1391
  210, 1381, 1392, 1382, 1391
  211, 1060, 1065, 1057, 1058
  212, 1064, 1244, 1061, 1393
  213, 1064, 1394, 1393, 1063
  214, 1064, 1395, 1394, 1396
  215, 1057, 1064, 1061, 1063
  216, 1176, 1170, 1293, 1169
  217, 1397,  694,  701,  700
  218, 1398, 1399, 1400, 1175
  219, 1175, 1173, 1401, 1400
  220, 1175, 1173, 1121, 1402
  221, 1384, 1403, 1104, 1102
  222, 1404, 1405, 1406, 1407
  223, 1407, 1408, 1409, 1410
  224, 1407, 1404, 1411, 1409
  225, 1074, 1075, 1412, 1055
  226, 1074, 1413, 1414, 1415
  227, 1074, 1414, 1413, 1416
  228, 1417,   76,  738,   77
  229, 1418, 1419, 1353, 1164
  230, 1055, 1415, 1413, 1074
  231, 1074, 1415, 1076, 1055
  232, 1074, 1414, 1420, 1072
  233, 1421, 1142, 1306, 1422
  234, 1421, 1422, 1306, 1285
  235, 1421, 1423, 1424, 1425
  236, 1421, 1425, 1422, 1423
  237, 1426, 1334, 1427, 1333
  238, 1428, 1333, 1334, 1264
  239, 1427, 1429, 1430, 1431
  240, 1429, 1428, 1427, 1334
  241, 1428, 1104, 1348, 1347
  242, 1428, 1418, 1431, 1432
  243, 1428, 1104, 1432, 1427
  244, 1433, 1434, 1050, 1435
  245, 1347, 1418, 1431, 1428
  246, 1372, 1374, 1321, 1379
  247, 1321, 1436, 1437, 1328
  248, 1323, 1438, 1439, 1440
  249, 1403, 1441, 1384, 1353
  250, 1265, 1257, 1348, 1442
  251, 1443, 1203, 1146, 1108
  252, 1444, 1445, 1446, 1447
  253, 1108, 1448, 1267, 1146
  254, 1108, 1449, 1448, 1443
  255, 1450, 1107, 1106, 1121
  256, 1121, 1117, 1107, 1451
  257, 1108, 1205, 1203, 1107
  258, 1048, 1452, 1050, 1453
  259, 1048, 1054, 1453, 1055
  260, 1454, 1053, 1455, 1052
  261, 1053, 1455, 1452,  628
  262, 1053, 1454, 1455,  628
  263, 1418, 1347, 1342, 1353
  264, 1418, 1432, 1456, 1457
  265, 1418, 1104, 1428, 1347
  266, 1417,   76,  302,  732
  267, 1418, 1456, 1458, 1457
  268, 1418, 1347, 1346, 1342
  269, 1418, 1431, 1458, 1346
  270, 1296, 1299, 1311, 1459
  271, 1438, 1296, 1460, 1461
  272, 1433,  623,  622,  617
  273, 1296, 1438, 1379, 1461
  274, 1425, 1421, 1311, 1424
  275, 1296, 1438, 1462, 1379
  276, 1296, 1438, 1463, 1462
  277, 1296, 1462, 1424, 1464
  278, 1296, 1424, 1462, 1463
  279, 1311, 1317, 1465, 1316
  280, 1317, 1309, 1316, 1311
  281, 1310, 1466, 1148, 1467
  282, 1310, 1467, 1468, 1466
  283, 1417,   76,  732,  738
  284, 1312, 1310, 1311, 1424
  285, 1310, 1466, 1468, 1127
  286, 1469, 1310, 1467, 1468
  287, 1470, 1471, 1472, 1383
  288, 1238, 1473, 1474, 1475
  289, 1238, 1236, 1472, 1476
  290, 1236, 1238, 1237, 1476
  291, 1332, 1264, 1263, 1340
  292, 1476, 1238, 1237, 1383
  293, 1238, 1475, 1474, 1236
  294, 1394, 1477, 1478, 1479
  295, 1045, 1480, 1481, 1270
  296, 1270, 1480, 1481, 1482
  297, 1120, 1444, 1483, 1396
  298, 1277, 1484, 1270, 1485
  299,  641, 1486, 1434, 1435
  300, 1270, 1487, 1488, 1276
  301, 1484, 1044, 1270, 1480
  302, 1269, 1270, 1277, 1271
  303, 1270, 1484, 1277, 1271
  304, 1489, 1437, 1490, 1491
  305, 1492, 1132, 1493, 1233
  306, 1492, 1494, 1495, 1150
  307, 1492, 1149, 1496, 1132
  308, 1492, 1149, 1132, 1150
  309, 1098, 1497, 1096, 1099
  310, 1098, 1498, 1497, 1099
  311, 1141, 1499, 1245, 1248
  312, 1098, 1500, 1099, 1100
  313, 1500, 1501, 1502, 1098
  314, 1098, 1094, 1503, 1100
  315, 1098, 1502, 1100, 1503
  316, 1134, 1135, 1132, 1130
  317, 1134, 1229, 1233, 1132
  318, 1226, 1475, 1228, 1235
  319, 1504, 1505, 1499, 1506
  320, 1134, 1130, 1228, 1507
  321, 1134, 1228, 1234, 1235
  322, 1414, 1508, 1509, 1510
  323, 1414, 1072, 1511, 1508
  324, 1414, 1512, 1416, 1420
  325, 1414, 1511, 1072, 1513
  326, 1074, 1420, 1414, 1416
  327, 1415, 1514, 1515, 1414
  328, 1311, 1298, 1504, 1299
  329, 1325, 1516, 1517, 1518
  330, 1087, 1326, 1516, 1325
  331, 1519, 1087, 1326, 1516
  332, 1095, 1325, 1517, 1242
  333, 1325, 1095, 1094, 1242
  334, 1325, 1517, 1516, 1520
  335, 1066, 1073, 1521, 1075
  336, 1076, 1522, 1054, 1055
  337, 1067, 1523, 1524, 1076
  338, 1525, 1067, 1523, 1524
  339, 1526, 1527, 1528, 1529
  340, 1530, 1513, 1523, 1067
  341, 1076, 1067, 1513, 1072
  342, 1340, 1531, 1532, 1533
  343, 1534, 1535, 1536, 1537
  344, 1531, 1538, 1533, 1539
  345, 1540, 1038, 1434,  133
  346,  735, 1539, 1541, 1542
  347, 1543, 1531, 1532, 1340
  348, 1539, 1263, 1340, 1543
  349, 1263, 1266, 1543, 1539
  350, 1539, 1264, 1538, 1340
  351, 1264, 1263, 1340, 1539
  352, 1539, 1531,  735, 1543
  353, 1539, 1542, 1538, 1259
  354, 1544, 1526, 1461, 1459
  355, 1332, 1333, 1447, 1336
  356, 1545, 1097, 1546, 1547
  357, 1545, 1089, 1100, 1547
  358, 1548, 1526, 1549, 1529
  359, 1545, 1130, 1089, 1547
  360, 1545, 1130, 1547, 1228
  361, 1545, 1550, 1234, 1235
  362, 1545, 1228, 1235, 1234
  363, 1417,   77,  289,  302
  364, 1545, 1100, 1097, 1547
  365, 1545, 1551, 1097, 1088
  366, 1187, 1195, 1552, 1196
  367, 1187, 1202, 1222, 1182
  368, 1187, 1222, 1553, 1183
  369, 1479, 1554, 1555, 1556
  370, 1338, 1395, 1336, 1339
  371, 1338, 1263, 1261, 1557
  372, 1526, 1537, 1528, 1558
  373, 1332, 1338, 1340, 1263
  374, 1478, 1338, 1559, 1340
  375, 1332, 1337, 1338, 1263
  376, 1560, 1075, 1561, 1073
  377, 1074, 1076, 1075, 1055
  378, 1076, 1562, 1522, 1524
  379, 1073, 1076, 1054, 1075
  380, 1054, 1073, 1407, 1410
  381, 1073, 1521, 1561, 1069
  382, 1066, 1076, 1067, 1073
  383, 1066, 1067, 1076, 1072
  384, 1407, 1073, 1560, 1410
  385, 1172, 1288, 1177, 1176
  386, 1175, 1399, 1172, 1563
  387, 1172, 1564, 1565, 1563
  388, 1534, 1459, 1566, 1567
  389, 1171, 1173, 1168, 1568
  390, 1172, 1174, 1401, 1173
  391, 1175, 1168, 1173, 1402
  392, 1175, 1402, 1569, 1565
  393, 1175, 1569, 1398, 1563
  394, 1373, 1570, 1571, 1375
  395, 1373, 1572, 1573, 1571
  396, 1373, 1574, 1322, 1374
  397, 1373, 1376, 1575, 1576
  398, 1373, 1573, 1572, 1575
  399, 1077, 1085, 1081, 1577
  400, 1077, 1578, 1085, 1577
  401, 1077, 1083, 1085, 1578
  402, 1083, 1223, 1579, 1155
  403, 1537, 1528, 1558, 1580
  404, 1083, 1223, 1581, 1210
  405, 1083, 1582, 1167, 1579
  406, 1083, 1582, 1084, 1085
  407, 1332, 1263, 1262, 1335
  408, 1459, 1583, 1537, 1584
  409, 1334, 1340, 1538, 1264
  410, 1264, 1538, 1334, 1429
  411, 1263, 1259, 1539, 1264
  412, 1269, 1272, 1267, 1271
  413, 1585, 1203, 1108, 1267
  414, 1268, 1146, 1269, 1586
  415, 1267, 1587, 1272, 1146
  416, 1203, 1268, 1144, 1146
  417, 1588, 1548, 1529,  465
  418, 1589,  746,  752,  745
  419, 1267, 1585, 1203, 1268
  420, 1376, 1590, 1591, 1576
  421, 1376, 1330, 1322, 1575
  422, 1372, 1461, 1436, 1567
  423, 1372, 1322, 1592, 1328
  424, 1373, 1572, 1576, 1575
  425, 1376, 1576, 1377, 1590
  426, 1302, 1593, 1370, 1369
  427, 1364, 1081, 1291, 1303
  428, 1364, 1303, 1368, 1594
  429, 1364, 1369, 1068, 1593
  430, 1364, 1594, 1081, 1303
  431, 1364, 1081, 1593, 1080
  432, 1594, 1288, 1081, 1177
  433, 1289, 1288, 1081, 1085
  434, 1291, 1365, 1303, 1177
  435, 1081, 1292, 1582, 1082
  436, 1077, 1082, 1081, 1085
  437, 1595, 1596, 1570, 1393
  438, 1595, 1244, 1477, 1393
  439, 1597, 1595, 1598, 1572
  440, 1533, 1599, 1600, 1589
  441, 1532, 1533, 1599, 1600
  442, 1601, 1602, 1603, 1604
  443, 1595, 1477, 1604, 1605
  444, 1532, 1543, 1599, 1531
  445, 1598, 1595, 1596, 1572
  446, 1216, 1595, 1477, 1604
  447, 1545, 1130, 1228, 1234
  448, 1130, 1089, 1547, 1606
  449, 1131, 1130, 1140, 1086
  450, 1134, 1130, 1234, 1228
  451, 1427, 1333, 1607, 1608
  452, 1607, 1427, 1104, 1428
  453, 1607, 1110, 1104, 1427
  454, 1609, 1610, 1611,  493
  455, 1104, 1111, 1418, 1432
  456, 1348, 1103, 1384, 1104
  457, 1412, 1612, 1405, 1613
  458, 1614, 1348, 1103, 1384
  459, 1101, 1104, 1103, 1607
  460, 1615,  605,  610,  604
  461, 1428, 1103, 1607, 1262
  462, 1616,   68,   69,  406
  463, 1104, 1347, 1384, 1348
  464, 1427, 1334, 1426, 1617
  465, 1618, 1209, 1619, 1620
  466, 1225, 1621, 1622, 1623
  467, 1428, 1624, 1429, 1431
  468, 1427, 1608, 1607, 1110
  469, 1532, 1625, 1394, 1626
  470, 1532, 1559, 1478, 1627
  471, 1532, 1628, 1339, 1340
  472, 1532, 1394, 1478, 1339
  473, 1532, 1626, 1600, 1625
  474, 1629, 1630, 1631, 1453
  475, 1372, 1567, 1328, 1378
  476, 1372, 1592, 1376, 1378
  477, 1372, 1373, 1376, 1322
  478, 1376, 1330, 1632, 1592
  479, 1321, 1328, 1437, 1327
  480, 1323, 1321, 1319, 1320
  481, 1633, 1322, 1374, 1323
  482, 1322, 1323, 1633, 1320
  483, 1373, 1322, 1574, 1575
  484, 1634,   77,   78,  289
  485, 1321, 1322, 1320, 1323
  486, 1319, 1323, 1324, 1635
  487,  611,  127, 1615, 1636
  488, 1440, 1321, 1323, 1438
  489, 1189, 1637, 1191, 1192
  490, 1638, 1639, 1640,  738
  491, 1641, 1642, 1243, 1297
  492, 1243, 1643, 1644, 1061
  493, 1243, 1244, 1246, 1643
  494, 1243, 1244, 1643, 1061
  495, 1243, 1245, 1252, 1306
  496, 1298, 1279, 1642, 1243
  497, 1243, 1245, 1306, 1298
  498, 1243, 1297, 1306, 1641
  499, 1645, 1323, 1646, 1647
  500, 1645, 1648, 1646, 1649
  501, 1650,  585,  590,  584
  502, 1645, 1651, 1648, 1649
  503, 1436, 1489, 1652, 1526
  504, 1638,  289, 1653,  290
  505, 1654, 1649, 1655, 1656
  506, 1657, 1532, 1600, 1533
  507,  200, 1651, 1655, 1649
  508, 1645, 1658, 1439, 1659
  509, 1098, 1660, 1661, 1662
  510, 1502, 1501, 1663, 1098
  511, 1497, 1664, 1498, 1665
  512, 1090, 1095, 1096, 1098
  513, 1497, 1666, 1587, 1665
  514, 1497, 1664, 1587, 1096
  515, 1149, 1667, 1668, 1151
  516, 1132, 1669, 1086, 1147
  517, 1132, 1133, 1086, 1669
  518, 1131, 1132, 1149, 1150
  519, 1149, 1151, 1668, 1147
  520, 1149, 1132, 1670, 1496
  521, 1671, 1672,  378, 1673
  522, 1671, 1672,  365,  378
  523, 1671, 1673, 1674, 1672
  524, 1671, 1672, 1675,  365
  525, 1671, 1676,  366, 1677
  526, 1671,  379, 1676, 1678
  527, 1491, 1679, 1549, 1438
  528, 1438, 1463, 1680, 1460
  529, 1438, 1321, 1323, 1379
  530, 1323, 1374, 1439, 1379
  531, 1645, 1656, 1323, 1439
  532, 1323, 1440, 1656, 1646
  533, 1064, 1396, 1058, 1395
  534, 1064, 1394, 1395, 1479
  535, 1064, 1394, 1479, 1477
  536, 1338, 1479, 1394, 1478
  537, 1057, 1064, 1396, 1058
  538, 1605, 1477, 1394, 1393
  539, 1394, 1063, 1681, 1393
  540, 1395, 1396, 1483, 1394
  541, 1120, 1395, 1396, 1483
  542, 1189, 1637, 1192, 1682
  543, 1223, 1683, 1210, 1213
  544, 1179, 1181, 1223, 1189
  545, 1179, 1223, 1213, 1189
  546, 1015, 1684, 1034, 1035
  547, 1334, 1617, 1430, 1685
  548, 1181, 1155, 1581, 1284
  549, 1638, 1686,  290, 1653
  550, 1683, 1223, 1581, 1189
  551, 1687, 1223, 1683, 1210
  552, 1223, 1078, 1084, 1224
  553, 1223, 1210, 1078, 1220
  554, 1180, 1223, 1155, 1579
  555, 1411, 1052, 1612, 1405
  556, 1411, 1052, 1688, 1612
  557, 1689,  995,  996, 1015
  558, 1411, 1054, 1690, 1052
  559, 1407, 1054, 1411, 1052
  560, 1407, 1409, 1411, 1054
  561, 1411, 1691, 1692, 1404
  562, 1411, 1405, 1691, 1404
  563, 1693, 1079, 1694, 1695
  564, 1693, 1618, 1079, 1208
  565, 1696, 1697, 1698, 1699
  566, 1693, 1695, 1700, 1699
  567, 1701, 1697, 1698, 1696
  568, 1693, 1208, 1209, 1618
  569, 1693, 1696, 1701, 1209
  570, 1278, 1065, 1246, 1245
  571, 1244, 1215, 1246, 1218
  572, 1244, 1216, 1477, 1215
  573, 1244, 1643, 1218, 1246
  574, 1064, 1477, 1244, 1393
  575, 1244, 1643, 1061, 1393
  576, 1702, 1703, 1704, 1705
  577, 1706, 1638, 1657, 1707
  578, 1703, 1399, 1708, 1704
  579, 1703, 1398, 1705, 1709
  580, 1703, 1708, 1399, 1710
  581, 1703, 1398, 1711, 1563
  582, 1703, 1712, 1711, 1709
  583, 1703, 1399, 1712, 1710
  584, 1140, 1089, 1147, 1086
  585, 1713,  114,  533,  113
  586, 1707, 1638, 1686,  303
  587, 1131, 1148, 1132, 1150
  588, 1249, 1141, 1142, 1140
  589, 1714, 1155, 1182, 1156
  590, 1156, 1715, 1281, 1716
  591, 1156, 1281, 1155, 1182
  592, 1156, 1714, 1157, 1166
  593, 1156, 1715, 1716, 1166
  594, 1098, 1094, 1095, 1662
  595, 1095, 1105, 1520, 1449
  596, 1095, 1449, 1660, 1717
  597, 1095, 1105, 1449, 1717
  598, 1095, 1662, 1094, 1242
  599, 1593, 1718, 1594, 1719
  600, 1594, 1719, 1368, 1593
  601, 1718,  374, 1719, 1700
  602, 1638, 1720, 1653,  289
  603, 1721, 1719, 1368, 1594
  604, 1718, 1722, 1594, 1721
  605, 1718,  374, 1721, 1719
  606, 1718, 1722, 1577, 1594
  607, 1141, 1723, 1242, 1724
  608, 1131, 1140, 1148, 1142
  609, 1140, 1367, 1239, 1242
  610, 1141, 1245, 1499, 1142
  611, 1239, 1242, 1367, 1366
  612, 1141, 1142, 1499, 1249
  613, 1239, 1141, 1242, 1241
  614, 1206, 1211, 1210, 1213
  615, 1210, 1208, 1207, 1696
  616, 1210, 1079, 1078, 1208
  617, 1210, 1695, 1208, 1696
  618, 1223, 1078, 1210, 1084
  619, 1077, 1079, 1210, 1695
  620, 1077, 1083, 1210, 1084
  621, 1578, 1077, 1083, 1695
  622, 1089, 1367, 1094, 1503
  623, 1087, 1325, 1094, 1147
  624, 1090, 1089, 1087, 1094
  625,  605, 1684, 1615,  126
  626, 1090, 1089, 1094, 1100
  627, 1545, 1100, 1089, 1088
  628, 1089, 1094, 1100, 1503
  629, 1725, 1658, 1439, 1726
  630, 1725, 1727, 1658, 1728
  631, 1727, 1285, 1729, 1725
  632, 1730, 1016, 1036, 1035
  633, 1731,   28,  179,   27
  634, 1417, 1638, 1639,  302
  635, 1725, 1727, 1728, 1729
  636, 1725, 1439, 1732, 1462
  637, 1725, 1733, 1726, 1464
  638, 1725, 1462, 1285, 1464
  639, 1488, 1734, 1735, 1736
  640, 1270, 1488, 1736, 1481
  641, 1488, 1481, 1045, 1737
  642, 1488, 1738, 1046, 1276
  643, 1488, 1738, 1739, 1737
  644, 1270, 1276, 1277, 1487
  645, 1488, 1045, 1046, 1737
  646, 1608, 1565, 1607, 1110
  647, 1101, 1104, 1111, 1403
  648, 1176, 1109, 1293, 1101
  649, 1740, 1335, 1336, 1333
  650, 1638, 1533, 1640, 1706
  651, 1104, 1427, 1110, 1432
  652, 1428, 1265, 1264, 1429
  653, 1467, 1148, 1132, 1466
  654, 1319, 1741, 1328, 1327
  655, 1310, 1423, 1148, 1425
  656, 1466, 1233, 1742, 1129
  657, 1742, 1129, 1743, 1466
  658, 1310, 1127, 1468, 1312
  659, 1320, 1329, 1744, 1745
  660, 1466, 1233, 1229, 1132
  661, 1466, 1127, 1746, 1129
  662, 1446, 1120, 1740, 1117
  663, 1122, 1116, 1115, 1117
  664, 1747, 1748, 1632, 1741
  665, 1747,  777, 1745,  771
  666, 1117, 1569, 1118, 1740
  667, 1747,  778, 1329,  777
  668, 1175, 1398, 1117, 1451
  669, 1117, 1116, 1118, 1569
  670, 1175, 1451, 1117, 1121
  671, 1749, 1750, 1480, 1294
  672, 1749, 1750, 1294, 1751
  673, 1417,  302,   76,   77
  674, 1749, 1481, 1480, 1482
  675, 1749, 1294, 1047, 1752
  676, 1039, 1047, 1749, 1294
  677, 1749, 1753, 1047, 1045
  678, 1754, 1755, 1250, 1248
  679, 1754, 1279, 1756, 1499
  680, 1754, 1756, 1279, 1757
  681, 1754, 1278, 1283, 1279
  682, 1754, 1248, 1505, 1755
  683, 1332, 1338, 1337, 1336
  684, 1332, 1628, 1447, 1334
  685, 1628, 1334, 1706, 1758
  686, 1628, 1339, 1447, 1483
  687, 1628, 1339, 1483, 1626
  688, 1408, 1759, 1760, 1404
  689, 1758, 1483, 1626, 1628
  690, 1270, 1276, 1045, 1044
  691, 1270, 1480, 1044, 1045
  692, 1761, 1762,  124,  593
  693, 1277, 1271, 1484, 1763
  694, 1277, 1763, 1485, 1764
  695, 1765, 1277, 1487, 1764
  696, 1764, 1277, 1487, 1766
  697, 1243, 1061, 1254, 1245
  698, 1243, 1643, 1246, 1642
  699, 1761, 1034,  125, 1033
  700, 1064, 1061, 1244, 1065
  701, 1643, 1061, 1393, 1767
  702, 1595, 1643, 1570, 1572
  703, 1243, 1244, 1061, 1245
  704, 1244, 1218, 1643, 1216
  705, 1122, 1569, 1116, 1117
  706, 1118, 1337, 1740, 1116
  707, 1120, 1740, 1117, 1118
  708, 1768, 1740, 1116, 1569
  709, 1740, 1116, 1569, 1118
  710, 1118, 1120, 1395, 1058
  711, 1446, 1740, 1398, 1117
  712, 1059, 1120, 1115, 1058
  713, 1120, 1769, 1058, 1059
  714, 1120, 1058, 1769, 1396
  715, 1120, 1336, 1446, 1740
  716, 1770, 1771, 1772, 1773
  717, 1120, 1336, 1395, 1483
  718, 1241, 1060, 1250, 1278
  719, 1147, 1094, 1087, 1089
  720, 1113, 1241, 1059, 1060
  721, 1113, 1241, 1250, 1247
  722, 1366, 1247, 1239, 1240
  723, 1239, 1242, 1366, 1240
  724, 1711, 1709, 1774, 1398
  725, 1711, 1774, 1775, 1398
  726, 1711, 1775, 1776, 1110
  727, 1703, 1563, 1711, 1712
  728, 1711, 1110, 1776, 1777
  729, 1408, 1404, 1778, 1759
  730, 1779, 1106, 1450, 1105
  731, 1203, 1173, 1780, 1121
  732, 1108, 1781, 1449, 1779
  733, 1782,  372,  371,  358
  734, 1761, 1762,  593, 1783
  735, 1121, 1203, 1107, 1106
  736, 1203, 1107, 1106, 1108
  737, 1268, 1267, 1146, 1203
  738, 1077, 1784, 1081, 1080
  739, 1785, 1291, 1290, 1786
  740, 1178, 1787, 1788, 1169
  741, 1292, 1291, 1290, 1785
  742, 1290, 1787, 1789, 1292
  743, 1289, 1582, 1292, 1293
  744, 1290, 1789, 1169, 1293
  745, 1272, 1790, 1587, 1791
  746, 1145, 1269, 1146, 1586
  747, 1487, 1276, 1277, 1272
  748, 1760, 1792, 1793,  404
  749, 1272, 1794, 1587, 1665
  750, 1272, 1146, 1587, 1790
  751, 1267, 1666, 1272, 1587
  752, 1667, 1795, 1796, 1495
  753, 1667, 1494, 1796, 1422
  754, 1797, 1151, 1668, 1667
  755, 1411, 1052, 1454, 1688
  756, 1667, 1795, 1668, 1797
  757, 1667, 1422, 1797, 1307
  758, 1047, 1752, 1294, 1798
  759, 1362, 1070, 1799, 1300
  760, 1073, 1069, 1560, 1800
  761, 1760, 1691, 1404, 1801
  762, 1802, 1047, 1753, 1508
  763, 1047, 1070, 1508, 1511
  764, 1273, 1803, 1250, 1283
  765, 1273, 1804, 1805, 1806
  766, 1273, 1250, 1806, 1805
  767, 1273, 1805, 1065, 1250
  768, 1479, 1555, 1807, 1804
  769, 1273, 1805, 1804, 1808
  770, 1412, 1406, 1613, 1405
  771, 1273, 1275, 1804, 1806
  772, 1804, 1119, 1808, 1805
  773, 1804, 1809, 1807, 1119
  774, 1561, 1810, 1406, 1792
  775, 1073, 1410, 1067, 1800
  776, 1811, 1578, 1812, 1813
  777, 1811, 1152, 1284, 1814
  778, 1811, 1812, 1815, 1813
  779, 1811, 1815, 1816, 1814
  780, 1811, 1816, 1152, 1814
  781, 1817, 1818, 1343, 1819
  782, 1819, 1818, 1343, 1820
  783, 1819, 1817, 1818,  712
  784,  712, 1817,  705, 1819
  785, 1513, 1821, 1822, 1511
  786, 1819, 1341, 1817, 1823
  787, 1819, 1823, 1817,  705
  788, 1760,  403, 1824, 1792
  789, 1115, 1107, 1114, 1121
  790, 1058, 1065, 1805, 1060
  791, 1113, 1058, 1115, 1112
  792, 1113, 1805, 1058, 1112
  793, 1058, 1808, 1395, 1119
  794, 1825, 1673, 1674, 1810
  795, 1043, 1826, 1268, 1586
  796, 1276, 1827, 1738, 1046
  797, 1043, 1045, 1046, 1276
  798, 1043, 1300, 1040, 1301
  799, 1043, 1046, 1301, 1827
  800, 1693, 1800, 1079, 1618
  801, 1079, 1208, 1525, 1078
  802, 1693, 1208, 1079, 1695
  803, 1079, 1067, 1694, 1080
  804, 1079, 1784, 1080, 1694
  805, 1077, 1080, 1079, 1784
  806, 1693, 1618, 1770, 1800
  807, 1693, 1618, 1209, 1770
  808, 1208, 1525, 1078, 1524
  809, 1210, 1213, 1211, 1220
  810, 1210, 1696, 1687, 1695
  811, 1799, 1828, 1829, 1674
  812, 1799, 1674, 1521, 1363
  813, 1799, 1829, 1830, 1831
  814, 1560, 1832, 1824, 1833
  815, 1047, 1300, 1829, 1799
  816, 1799, 1420, 1508, 1071
  817, 1799, 1508, 1420, 1834
  818, 1474, 1835, 1473, 1836
  819, 1837,  496, 1838,  502
  820, 1071, 1070, 1508, 1799
  821, 1456, 1419, 1167, 1109
  822, 1418, 1403, 1419, 1111
  823, 1456, 1839, 1111, 1109
  824, 1457, 1458, 1840, 1814
  825, 1418, 1431, 1457, 1458
  826, 1814, 1458, 1840, 1164
  827, 1289, 1582, 1109, 1085
  828, 1289, 1177, 1288, 1176
  829, 1085, 1582, 1813, 1083
  830, 1582, 1841, 1842, 1579
  831, 1174, 1304, 1308, 1401
  832, 1171, 1174, 1173, 1568
  833, 1174, 1303, 1295, 1178
  834, 1174, 1304, 1568, 1305
  835, 1243, 1279, 1642, 1246
  836, 1061, 1062, 1063, 1843
  837, 1643, 1570, 1767, 1393
  838, 1061, 1255, 1254, 1843
  839, 1844, 1845, 1846, 1847
  840, 1199, 1166, 1198, 1844
  841, 1320, 1848, 1633, 1574
  842, 1323, 1633, 1320, 1647
  843, 1322, 1575, 1320, 1574
  844, 1320, 1745, 1330, 1329
  845, 1320, 1848, 1744, 1647
  846, 1320, 1575, 1745, 1574
  847, 1624, 1429, 1849, 1850
  848, 1265, 1429, 1348, 1850
  849, 1851, 1852, 1853, 1854
  850, 1345, 1818, 1855, 1856
  851, 1345, 1624, 1347, 1346
  852, 1624, 1431, 1346, 1849
  853, 1428, 1347, 1624, 1431
  854, 1153, 1715, 1163, 1154
  855, 1544, 1317, 1528, 1465
  856, 1715, 1198, 1857, 1716
  857, 1156, 1182, 1166, 1716
  858, 1715, 1281, 1858, 1154
  859, 1362, 1859, 1370, 1301
  860, 1362, 1046, 1300, 1829
  861, 1302, 1070, 1362, 1300
  862, 1300, 1070, 1799, 1047
  863, 1130, 1234, 1088, 1086
  864, 1130, 1234, 1086, 1133
  865, 1860, 1228, 1861, 1862
  866, 1609, 1863,  494,  488
  867, 1228, 1862, 1547, 1861
  868, 1861, 1228, 1475, 1864
  869, 1234, 1226, 1232, 1134
  870, 1228, 1862, 1606, 1547
  871, 1063, 1843, 1253, 1767
  872, 1061, 1063, 1767, 1843
  873, 1063, 1843, 1062, 1865
  874, 1063, 1866, 1769, 1396
  875, 1063, 1396, 1867, 1866
  876, 1063, 1867, 1681, 1868
  877, 1063, 1681, 1393, 1869
  878, 1127,  476, 1314, 1313
  879, 1127, 1314,  476, 1870
  880, 1123, 1128, 1313, 1126
  881, 1425, 1311, 1298, 1504
  882, 1372, 1461, 1567, 1871
  883, 1127, 1870, 1468, 1312
  884, 1123, 1127, 1129, 1746
  885, 1872,  765, 1873, 1874
  886, 1309, 1310, 1746, 1316
  887, 1310, 1312, 1468, 1469
  888, 1424, 1680, 1463, 1460
  889,  760,  759, 1873, 1875
  890, 1876,  759, 1873,  765
  891, 1296, 1311, 1299, 1298
  892, 1312, 1311, 1460, 1424
  893, 1310, 1311, 1424, 1425
  894, 1424, 1463, 1469, 1464
  895, 1296, 1424, 1463, 1460
  896,  758,  759, 1877, 1878
  897, 1228, 1235, 1475, 1864
  898, 1475, 1860, 1228, 1861
  899, 1835, 1475, 1861, 1860
  900, 1228, 1475, 1227, 1860
  901, 1879, 1129, 1232, 1476
  902, 1879, 1880, 1609, 1611
  903, 1879, 1609, 1610, 1611
  904, 1879, 1881, 1743, 1611
  905, 1857, 1882, 1198, 1883
  906, 1715, 1858, 1884, 1154
  907, 1155, 1153, 1167, 1152
  908, 1885, 1844, 1846, 1198
  909, 1857, 1886, 1887, 1858
  910, 1857, 1715, 1885, 1198
  911, 1857, 1887, 1888, 1889
  912, 1715, 1857, 1890, 1887
  913, 1857, 1885, 1890, 1889
  914, 1039, 1749, 1047, 1045
  915, 1480, 1294, 1891, 1042
  916, 1039, 1042, 1480, 1044
  917, 1480, 1482, 1892, 1750
  918, 1749, 1482, 1480, 1750
  919, 1067, 1080, 1530, 1068
  920, 1079, 1067, 1080, 1525
  921, 1290, 1291, 1365, 1786
  922, 1066, 1067, 1072, 1068
  923, 1076, 1618, 1067, 1410
  924, 1522, 1055, 1415, 1049
  925, 1522, 1631, 1893, 1630
  926, 1054, 1562, 1894, 1453
  927, 1738, 1895, 1896, 1739
  928, 1075, 1073, 1407, 1054
  929, 1076, 1562, 1618, 1410
  930, 1734,  584, 1897,  578
  931, 1098, 1661, 1660, 1663
  932, 1497, 1099, 1664, 1096
  933, 1099, 1551, 1097, 1898
  934, 1099, 1500, 1097, 1100
  935, 1589, 1899, 1900, 1901
  936, 1761, 1033, 1902, 1034
  937, 1762,  123, 1032,  124
  938, 1099, 1903, 1664, 1096
  939, 1904,  584, 1734, 1905
  940, 1127, 1128, 1129, 1880
  941, 1129, 1743, 1466, 1127
  942, 1129, 1232, 1229, 1233
  943, 1129, 1233, 1742, 1232
  944, 1129, 1236, 1232, 1476
  945, 1123, 1129, 1230, 1746
  946, 1129, 1230, 1236, 1906
  947, 1129, 1127, 1880, 1743
  948, 1153, 1154, 1156, 1715
  949, 1156, 1166, 1182, 1714
  950, 1157, 1225, 1155, 1579
  951, 1157, 1280, 1155, 1225
  952, 1157, 1155, 1167, 1579
  953, 1157, 1155, 1280, 1714
  954, 1157, 1167, 1165, 1907
  955, 1332, 1628, 1334, 1340
  956, 1628, 1334, 1340, 1538
  957, 1263, 1559, 1557, 1338
  958, 1543, 1559, 1557, 1263
  959, 1532, 1340, 1559, 1543
  960, 1600, 1657, 1908, 1626
  961, 1532, 1657, 1628, 1533
  962,  578, 1905, 1736, 1734
  963, 1533, 1539, 1340, 1531
  964, 1538, 1340, 1533, 1539
  965, 1532, 1559, 1627, 1543
  966, 1474, 1836, 1473, 1472
  967, 1474, 1835, 1475, 1473
  968, 1851, 1475, 1909, 1910
  969, 1488, 1735, 1487, 1736
  970, 1238, 1474, 1472, 1236
  971, 1474, 1909, 1910, 1911
  972, 1236, 1912, 1476, 1863
  973, 1473, 1471, 1913, 1238
  974, 1236, 1476, 1912, 1472
  975, 1474, 1236, 1475, 1909
  976, 1236, 1476, 1906, 1863
  977, 1428, 1264, 1334, 1429
  978, 1428, 1262, 1348, 1103
  979, 1256, 1914, 1257, 1442
  980, 1607, 1608, 1569, 1565
  981, 1607, 1262, 1103, 1335
  982, 1262, 1442, 1265, 1348
  983, 1256, 1265, 1262, 1442
  984, 1262, 1261, 1915, 1335
  985, 1262, 1103, 1335, 1916
  986, 1825, 1672, 1673, 1917
  987, 1825, 1521, 1363, 1069
  988, 1825, 1810, 1521, 1561
  989, 1825, 1369, 1363, 1828
  990, 1825, 1810, 1561, 1673
  991, 1825, 1672, 1828, 1674
  992, 1222, 1182, 1714, 1280
  993, 1222, 1918, 1202, 1919
  994, 1222, 1919, 1202, 1553
  995, 1221, 1222, 1553, 1920
  996, 1183, 1222, 1553, 1221
  997, 1180, 1280, 1222, 1221
  998, 1222, 1221, 1280, 1623
  999, 1166, 1716, 1182, 1195
 1000, 1846, 1199, 1883, 1198
 1001, 1199, 1198, 1200, 1883
 1002, 1844, 1166, 1354, 1199
 1003, 1734,  578, 1897, 1739
 1004, 1166, 1195, 1182, 1202
 1005, 1198, 1715, 1885, 1166
 1006, 1193, 1202, 1166, 1921
 1007, 1066, 1363, 1068, 1070
 1008, 1067, 1618, 1800, 1410
 1009, 1407, 1052, 1411, 1405
 1010, 1054, 1407, 1075, 1052
 1011, 1076, 1522, 1055, 1415
 1012, 1407, 1409, 1054, 1410
 1013, 1407, 1408, 1760, 1404
 1014, 1075, 1922, 1521, 1071
 1015, 1066, 1075, 1521, 1071
 1016, 1174, 1303, 1177, 1923
 1017, 1171, 1172, 1174, 1177
 1018, 1175, 1563, 1172, 1565
 1019, 1173, 1304, 1401, 1924
 1020, 1173, 1925, 1402, 1168
 1021, 1118, 1120, 1336, 1395
 1022, 1332, 1338, 1336, 1339
 1023, 1737, 1739, 1734, 1897
 1024, 1333, 1740, 1607, 1608
 1025, 1332, 1334, 1264, 1340
 1026, 1775, 1740, 1336, 1333
 1027, 1336, 1775, 1447, 1446
 1028, 1333, 1262, 1607, 1335
 1029, 1332, 1333, 1336, 1335
 1030, 1887, 1926, 1886, 1927
 1031, 1768, 1740, 1607, 1928
 1032, 1118, 1807, 1395, 1337
 1033, 1118, 1116, 1807, 1337
 1034, 1335, 1740, 1607, 1333
 1035, 1740, 1608, 1398, 1569
 1036, 1929,  512, 1930,  108
 1037, 1740, 1398, 1117, 1569
 1038, 1931, 1059, 1120, 1115
 1039, 1431, 1428, 1427, 1429
 1040, 1628, 1706, 1334, 1538
 1041, 1334, 1706, 1617, 1685
 1042, 1256, 1259, 1264, 1265
 1043, 1539, 1538, 1264, 1259
 1044, 1256, 1262, 1264, 1263
 1045, 1932, 1033, 1032, 1013
 1046, 1334, 1333, 1447, 1332
 1047, 1256, 1263, 1266, 1933
 1048, 1332, 1628, 1340, 1339
 1049, 1332, 1264, 1262, 1263
 1050, 1332, 1337, 1263, 1335
 1051, 1266, 1259, 1539, 1263
 1052, 1591,  814, 1934, 1935
 1053, 1591, 1936, 1576, 1935
 1054, 1591, 1934, 1632, 1936
 1055, 1889, 1937, 1938, 1939
 1056, 1935, 1940, 1590, 1591
 1057, 1941, 1493, 1232, 1742
 1058, 1226, 1236, 1129, 1230
 1059, 1226, 1475, 1236, 1230
 1060, 1226, 1229, 1227, 1230
 1061, 1232, 1742, 1493, 1233
 1062, 1232, 1942, 1476, 1383
 1063, 1229, 1134, 1233, 1232
 1064, 1383, 1476, 1232, 1237
 1065, 1232, 1389, 1234, 1233
 1066, 1497, 1664, 1665, 1587
 1067, 1666, 1763, 1271, 1764
 1068, 1666, 1271, 1763, 1585
 1069, 1267, 1666, 1585, 1271
 1070, 1497, 1663, 1666, 1665
 1071, 1198, 1943, 1200, 1883
 1072, 1666, 1944, 1665, 1663
 1073, 1945, 1946, 1947, 1948
 1074, 1945, 1947, 1946, 1949
 1075, 1945, 1790, 1950, 1951
 1076, 1945, 1790, 1587, 1950
 1077, 1945, 1903, 1794, 1949
 1078, 1945, 1587, 1794, 1903
 1079, 1053, 1054, 1894, 1453
 1080, 1522, 1049, 1952, 1631
 1081, 1052, 1075, 1405, 1407
 1082, 1075, 1810, 1521, 1922
 1083, 1410, 1076, 1054, 1073
 1084, 1054, 1562, 1953, 1894
 1085, 1562, 1522, 1453, 1054
 1086, 1113, 1060, 1058, 1805
 1087, 1115, 1112, 1058, 1119
 1088, 1113, 1059, 1240, 1114
 1089, 1113, 1059, 1058, 1060
 1090, 1889, 1938, 1954, 1955
 1091, 1241, 1956, 1059, 1062
 1092, 1057, 1062, 1059, 1769
 1093, 1181, 1182, 1281, 1192
 1094, 1180, 1223, 1224, 1220
 1095, 1083, 1223, 1155, 1581
 1096, 1153, 1152, 1154, 1163
 1097, 1157, 1579, 1907, 1225
 1098, 1181, 1223, 1581, 1155
 1099, 1180, 1181, 1182, 1155
 1100, 1156, 1155, 1281, 1154
 1101, 1155, 1167, 1284, 1152
 1102, 1885, 1957, 1163, 1958
 1103, 1959, 1384, 1614, 1103
 1104, 1959, 1916, 1614, 1386
 1105, 1959, 1102, 1960, 1170
 1106, 1959, 1384, 1103, 1102
 1107, 1916, 1959, 1961, 1962
 1108, 1959, 1961, 1963, 1960
 1109, 1959, 1103, 1961, 1960
 1110, 1074, 1071, 1420, 1412
 1111, 1964, 1416, 1965, 1051
 1112, 1416, 1965, 1051, 1055
 1113, 1055, 1056, 1052, 1612
 1114, 1075, 1055, 1052, 1412
 1115, 1055, 1966, 1415, 1049
 1116, 1966, 1415, 1413, 1055
 1117, 1055, 1612, 1412, 1965
 1118, 1048, 1056, 1055, 1051
 1119, 1167, 1164, 1165, 1967
 1120, 1582, 1419, 1167, 1842
 1121, 1582, 1419, 1109, 1167
 1122, 1109, 1842, 1419, 1582
 1123, 1456, 1419, 1164, 1167
 1124, 1441, 1842, 1419, 1109
 1125, 1456, 1419, 1109, 1111
 1126, 1109, 1419, 1441, 1403
 1127, 1968, 1122, 1119, 1112
 1128, 1968, 1116, 1119, 1122
 1129, 1902, 1015, 1034, 1014
 1130, 1968, 1969, 1122, 1970
 1131, 1968, 1119, 1971, 1112
 1132, 1968, 1971, 1119, 1809
 1133, 1497, 1664, 1099, 1498
 1134, 1497, 1665, 1498, 1663
 1135, 1946, 1587, 1903, 1096
 1136, 1587, 1903, 1096, 1664
 1137, 1664, 1587, 1794, 1665
 1138, 1972, 1341, 1845, 1973
 1139, 1664, 1498, 1665, 1794
 1140, 1494, 1469, 1423, 1467
 1141, 1494, 1796, 1974, 1495
 1142, 1494, 1423, 1975, 1422
 1143, 1494, 1150, 1423, 1422
 1144, 1193, 1199, 1198, 1200
 1145, 1134, 1135, 1229, 1132
 1146, 1131, 1135, 1132, 1148
 1147, 1466, 1135, 1132, 1229
 1148, 1134, 1227, 1135, 1507
 1149, 1466, 1135, 1229, 1746
 1150, 1135, 1227, 1229, 1746
 1151, 1310, 1976, 1135, 1746
 1152, 1976, 1135, 1977, 1148
 1153, 1436, 1321, 1372, 1328
 1154, 1379, 1436, 1321, 1372
 1155, 1436, 1978, 1652, 1489
 1156, 1436, 1489, 1437, 1978
 1157, 1979, 1436, 1978, 1652
 1158, 1980, 1979, 1567, 1328
 1159, 1981, 1032, 1031, 1012
 1160, 1844, 1846, 1199, 1982
 1161, 1436, 1979, 1978, 1328
 1162, 1328, 1979, 1978, 1327
 1163, 1082, 1530, 1080, 1821
 1164, 1082, 1841, 1983, 1292
 1165, 1077, 1080, 1082, 1078
 1166, 1077, 1082, 1085, 1084
 1167, 1083, 1814, 1811, 1284
 1168, 1364, 1068, 1070, 1821
 1169, 1821, 1364, 1081, 1291
 1170, 1582, 1085, 1082, 1084
 1171, 1576, 1377, 1590, 1218
 1172, 1595, 1576, 1643, 1572
 1173, 1576, 1874, 1597, 1936
 1174, 1591, 1632, 1576, 1936
 1175, 1576, 1935, 1936, 1603
 1176, 1984, 1985, 1209, 1206
 1177, 1206, 1207, 1984, 1212
 1178, 1189, 1683, 1223, 1213
 1179, 1190, 1220, 1214, 1213
 1180, 1982, 1883, 1937, 1846
 1181, 1179, 1213, 1220, 1190
 1182, 1213, 1190, 1986, 1212
 1183, 1987, 1988, 1989,  586
 1184, 1826, 1924, 1990, 1991
 1185, 1992, 1622,  921,  920
 1186, 1992, 1622, 1993,  921
 1187, 1992, 1789, 1994, 1292
 1188, 1932, 1013, 1981, 1995
 1189, 1992, 1996, 1997, 1622
 1190, 1998, 1982,  692, 1937
 1191, 1998, 1982, 1847,  692
 1192, 1992, 1997, 1842, 1225
 1193, 1992, 1993, 1622, 1841
 1194, 1560, 1770, 1771, 1408
 1195, 1512, 1413, 1416, 1730
 1196, 1407, 1408, 1410, 1560
 1197, 1408, 1999, 1410, 1770
 1198, 1408, 1760, 1772, 1771
 1199, 1271, 1044, 1270, 1484
 1200, 1271, 1484, 1268, 1044
 1201, 1277, 1487, 1272, 1765
 1202, 1267, 1448, 1587, 1146
 1203, 1666, 1665, 1944, 1764
 1204, 1074, 1072, 1076, 1415
 1205, 1067, 1072, 1068, 1513
 1206, 1074, 1414, 1072, 1415
 1207, 1066, 1068, 1072, 1070
 1208, 1414, 1511, 1509, 1508
 1209, 1072, 1511, 1070, 1513
 1210, 1134, 1234, 1130, 1133
 1211, 1134, 1130, 1507, 1135
 1212, 1130, 1228, 1606, 1547
 1213, 1545, 1864, 1550, 1235
 1214, 1234, 1357, 1088, 1086
 1215, 1234, 1088, 1357, 2000
 1216, 1885, 1845, 2001, 1846
 1217, 2002,   21,  184,    3
 1218, 1153, 1167, 1164, 1165
 1219, 2003, 2004, 1062, 2005
 1220, 1844, 1846, 1982, 1847
 1221, 1857, 1888, 2006, 1882
 1222, 1890, 1715, 1163, 1885
 1223, 1180, 1220, 1184, 1179
 1224, 1281, 1154, 1282, 1858
 1225, 1281, 1858, 1682, 2007
 1226, 1715, 1858, 1857, 1887
 1227, 1281, 1858, 2007, 1716
 1228, 1443, 1108, 1205, 1203
 1229, 1172, 1174, 1923, 1401
 1230, 1302, 1300, 1047, 1070
 1231, 1302, 1301, 1300, 1370
 1232, 1301, 1041, 1308, 1302
 1233, 1178, 1290, 1177, 1365
 1234, 1303, 1177, 1923, 1594
 1235, 1041, 1308, 1174, 1040
 1236, 1419, 1111, 1403, 1109
 1237, 1164, 1419, 1967, 1167
 1238, 1967, 1164, 1165, 1353
 1239, 1456, 1109, 1167, 1814
 1240, 1081, 1080, 1784, 1593
 1241, 2008,  947, 2009,  948
 1242, 2010, 2011, 2012, 2013
 1243, 1079, 1080, 1078, 1525
 1244, 1080, 1068, 1821, 1530
 1245, 1066, 1074, 1076, 1075
 1246, 1067, 1080, 1068, 1694
 1247, 1080, 1068, 1694, 1593
 1248, 1077, 1082, 1084, 1078
 1249, 1364, 1080, 1068, 1821
 1250, 2014,  370,  384,  383
 1251, 1067, 1530, 1080, 1525
 1252, 1078, 1084, 1224, 2015
 1253, 1082, 1983, 1084, 2015
 1254, 1082, 1078, 2015, 1084
 1255, 1078, 1211, 1524, 2015
 1256, 1208, 1524, 1078, 1211
 1257, 1117, 1120, 1931, 1446
 1258, 1083, 1695, 1581, 1578
 1259, 1077, 1784, 1079, 1695
 1260, 1099, 1898, 1097, 1500
 1261, 1098, 1096, 1497, 1095
 1262, 2016, 1903, 1898, 1551
 1263, 1097, 1547, 1100, 2017
 1264, 1545, 2018, 1547, 1546
 1265, 2018, 1545, 1864, 1550
 1266, 1547, 1545, 1228, 1864
 1267, 1090, 1100, 1097, 1088
 1268, 1107, 1204, 1121, 1451
 1269, 1443, 1105, 1205, 1108
 1270, 1105, 1205, 1108, 1107
 1271, 1107, 1105, 1240, 1114
 1272, 1059, 2005, 1107, 1931
 1273, 1485, 1482, 2019, 2020
 1274, 1114, 1107, 1450, 1121
 1275, 1273, 1065, 1215, 1278
 1276, 1047, 1300, 1046, 1829
 1277, 1047, 1752, 1798, 1511
 1278, 1749, 1751, 1802, 1753
 1279, 1480, 1484, 1042, 1891
 1280, 1039, 1749, 1480, 1294
 1281, 1270, 1485, 1480, 1482
 1282, 1488, 1737, 1736, 1481
 1283, 1039, 1300, 1040, 1043
 1284, 1300, 1046, 1043, 1039
 1285, 1233, 1129, 1466, 1229
 1286, 1089, 1977, 1130, 1140
 1287, 1273, 1215, 1283, 1278
 1288, 1237, 1476, 1232, 1236
 1289, 1226, 1232, 1236, 1237
 1290, 2021, 1969, 1925, 1768
 1291, 2021, 1961, 2022, 1768
 1292, 2021, 1969, 2022, 2023
 1293, 1426, 1775, 1333, 1427
 1294, 1608, 1565, 1563, 1569
 1295, 1335, 1928, 1740, 1337
 1296, 1118, 1336, 1740, 1337
 1297, 1101, 1176, 1960, 1170
 1298, 1427, 2024, 1432, 2025
 1299, 1463, 1469, 2026, 1680
 1300, 1463, 1464, 1726, 1733
 1301, 1460, 1438, 1679, 1680
 1302, 2027, 1463, 1680, 1438
 1303, 1296, 1463, 1438, 1460
 1304, 1311, 1460, 1544, 1317
 1305, 1424, 1464, 1469, 1423
 1306, 1499, 1298, 1245, 1279
 1307, 1421, 1462, 1296, 1464
 1308, 1421, 1296, 1298, 1311
 1309, 2028,  908,  909,  928
 1310, 1421, 1285, 1306, 1297
 1311, 1421, 1298, 1297, 1306
 1312, 1298, 1504, 1142, 1425
 1313, 1279, 1245, 1243, 1298
 1314, 1298, 1642, 2029, 1297
 1315, 1596, 2030, 1767, 2031
 1316, 1595, 1570, 1596, 1572
 1317, 1596, 1570, 1393, 1767
 1318, 1596, 1767, 1869, 2031
 1319, 2032, 1596, 2033, 1598
 1320, 1598, 1596, 2033, 2034
 1321, 1044, 2035, 1484, 1268
 1322, 1277, 1763, 1484, 1485
 1323, 1484, 2035, 2036, 1585
 1324, 1484, 2037, 2038, 1763
 1325, 1484, 2036, 2038, 2037
 1326, 1604, 2039, 2040, 2041
 1327,  738, 1639, 1640,  732
 1328, 1604, 1477, 2042, 2043
 1329, 1604, 2043, 2042, 2044
 1330, 2045, 2046, 2047, 2048
 1331, 1791, 2049, 1765, 2050
 1332, 1216, 1603, 1595, 1604
 1333, 1604, 1601, 2044, 1603
 1334, 1804, 1807, 1808, 1119
 1335, 1551, 2018, 1546, 2051
 1336, 1807, 1116, 2052, 1337
 1337, 1554, 1807, 2052, 1337
 1338, 1116, 1807, 2052, 1809
 1339, 1807, 1395, 1337, 1479
 1340, 1807, 1337, 1554, 1479
 1341, 1661, 1662, 2053, 1502
 1342, 1098, 1661, 1663, 1502
 1343, 1661, 2054, 1663, 1502
 1344, 1661, 2055, 1717, 2056
 1345, 1661, 2055, 2057, 1662
 1346, 1661, 2053, 1662, 2057
 1347, 1661, 1717, 1662, 1660
 1348, 1347, 1348, 1349, 1384
 1349, 1345, 1342, 1343, 1346
 1350, 1345, 1347, 1624, 1348
 1351, 1432, 1104, 1428, 1418
 1352, 1418, 1164, 1342, 1346
 1353, 1104, 1384, 1347, 1403
 1354, 1129, 1236, 1476, 1906
 1355, 1476, 1609, 1863, 2058
 1356, 1743, 1879, 1880, 1129
 1357, 1476, 1863, 1609, 1128
 1358, 1622, 1841, 1225, 1992
 1359, 1582, 1841, 1082, 1292
 1360, 1082, 1841, 1084, 1983
 1361, 1083, 1084, 1582, 1579
 1362, 1081, 1582, 1085, 1082
 1363, 1841, 1579, 1225, 1842
 1364, 1224, 1841, 1225, 1622
 1365, 1841, 1224, 1579, 1084
 1366, 1171, 1178, 1568, 1168
 1367, 1174, 1173, 1568, 1304
 1368, 1289, 1288, 1085, 1109
 1369, 1303, 1594, 1923, 1368
 1370, 1171, 1177, 1169, 1176
 1371, 1172, 1176, 1564, 1288
 1372, 1171, 1176, 1170, 1960
 1373, 2052, 1116, 1928, 1337
 1374, 2052, 1969, 2022, 1768
 1375, 2052, 1961, 1928, 1768
 1376, 1086, 1087, 1669, 1092
 1377, 2052, 1809, 1969, 1116
 1378, 2052, 1961, 2059, 1928
 1379, 1043, 1044, 1045, 1276
 1380, 1045, 1046, 1737, 1829
 1381, 1047, 1045, 1753, 1829
 1382, 1394, 1625, 1605, 1393
 1383, 1270, 1766, 1481, 1736
 1384, 1362, 1301, 1046, 1859
 1385, 1046, 1895, 1829, 1859
 1386, 1451, 2060, 1398, 1446
 1387, 1451, 2060, 1705, 1398
 1388, 1398, 2060, 1705, 1709
 1389, 1447, 1775, 1445, 1446
 1390, 1546, 2061, 2018, 2062
 1391, 1711, 2063, 1774, 1709
 1392, 1774, 1446, 1775, 1398
 1393, 1402, 1565, 1768, 1569
 1394, 1117, 1402, 1121, 1122
 1395, 1171, 1173, 1175, 1168
 1396, 1175, 1121, 1117, 1402
 1397, 1736, 1270, 1487, 1488
 1398, 1175, 1401, 1172, 1399
 1399, 1175, 1400, 1401, 1399
 1400, 1175, 1402, 1117, 1569
 1401, 1243, 1254, 1255, 1252
 1402, 2064, 1286, 1641, 1255
 1403, 1057, 1396, 1063, 1769
 1404, 1061, 1245, 1065, 1060
 1405, 1255, 1767, 1644, 2064
 1406, 1304, 1826, 1268, 1040
 1407, 1203, 1304, 2035, 1780
 1408, 1039, 1294, 1041, 1047
 1409, 1304, 1268, 2035, 1040
 1410, 1079, 1067, 1800, 1694
 1411, 1068, 1369, 1070, 1363
 1412, 1821, 1070, 1513, 1068
 1413, 1501, 2065, 2066, 1898
 1414, 1484, 1585, 1268, 2035
 1415, 1480, 1484, 1891, 2067
 1416, 1484, 1892, 2038, 2067
 1417, 1484, 2038, 1892, 1485
 1418, 1270, 1277, 1485, 1766
 1419, 1271, 1484, 1763, 1585
 1420, 1046, 1738, 1737, 1895
 1421, 1046, 1827, 1738, 1895
 1422, 1276, 2068, 1145, 2050
 1423, 1047, 1752, 1802, 1749
 1424, 1276, 2068, 2050, 1738
 1425, 1208, 1524, 1618, 1525
 1426, 1076, 1524, 1618, 1562
 1427, 1618, 1410, 1999, 1770
 1428, 1079, 1618, 1067, 1525
 1429, 2068, 1827, 1738, 1276
 1430, 1272, 1487, 1276, 2050
 1431, 1203, 1304, 1268, 2035
 1432, 1781, 1585, 1779, 1108
 1433, 1304, 1780, 1305, 2035
 1434, 1480, 1039, 1045, 1749
 1435, 1042, 2035, 1484, 1044
 1436, 1304, 1924, 1268, 1826
 1437, 1043, 1040, 1268, 1826
 1438, 1267, 1268, 1271, 1585
 1439, 2035, 1040, 1044, 1042
 1440, 1081, 1821, 1082, 1080
 1441, 1364, 1821, 1070, 1365
 1442, 1749, 1753, 1481, 1751
 1443, 1072, 1508, 1070, 1511
 1444, 1047, 1799, 1829, 1753
 1445, 1501, 1898, 1500, 2065
 1446, 1638,  303,  302,  289
 1447, 1047, 1070, 1799, 1508
 1448, 1039, 1041, 1040, 1300
 1449, 2069,  122, 1031,  123
 1450, 1302, 1365, 1070, 1295
 1451, 1101, 1110, 1565, 1176
 1452, 1907, 1967, 1441, 1419
 1453, 1582, 1842, 1167, 1579
 1454, 1456, 1109, 1814, 1839
 1455, 1456, 1111, 1839, 1432
 1456, 1176, 1109, 1101, 1110
 1457, 1564, 1109, 1110, 1839
 1458, 1109, 1110, 1839, 1111
 1459, 1104, 1110, 1111, 1432
 1460, 1546, 2018, 2061, 2051
 1461, 1085, 1109, 1288, 1813
 1462, 1582, 1293, 1109, 1842
 1463, 1582, 1082, 1841, 1084
 1464, 1461, 1380, 1372, 1379
 1465, 1380, 1297, 1379, 1461
 1466, 1644, 1380, 1375, 1570
 1467, 1970,  934, 2023, 2070
 1468, 1372, 1380, 1871, 1377
 1469, 1643, 1380, 1377, 1642
 1470, 1372, 1375, 1380, 1377
 1471, 1643, 1377, 1570, 1572
 1472, 2071, 2072, 2073, 2030
 1473, 2030, 2072, 2064, 2071
 1474, 1596, 2034, 1573, 2073
 1475, 1570, 1380, 1375, 1377
 1476, 1596, 1573, 1572, 1571
 1477, 1570, 2072, 1375, 1644
 1478, 1844, 1361, 1885, 1957
 1479, 1844, 1341, 1354, 1361
 1480, 1360, 1166, 1199, 1354
 1481, 1138, 1970,  915,  914
 1482, 1199, 2074, 1360, 1354
 1483, 1138,  914, 1136, 1970
 1484, 1844, 1354, 1341, 1823
 1485, 1354, 1341, 1344, 1342
 1486, 1354, 1817, 1344, 1341
 1487, 1361, 1352, 1353, 1342
 1488, 1255, 1843, 1253, 1254
 1489, 1243, 1061, 1255, 1254
 1490, 1063, 1767, 1253, 2075
 1491, 1062, 1865, 1769, 1063
 1492, 1057, 1769, 1063, 1062
 1493, 1061, 1255, 1843, 1767
 1494, 2076,  381,  368,  382
 1495, 2003, 1865, 1769, 1062
 1496, 1686,  304,  303,  290
 1497, 1843, 1254, 2003, 2077
 1498, 1843, 1253, 1254, 2077
 1499, 1624, 1431, 1347, 1346
 1500, 1138, 1136, 1139, 2070
 1501, 1334, 1429, 1430, 1427
 1502, 1427, 2024, 1776, 1110
 1503, 2078, 1593, 1784, 1694
 1504, 1718, 1700, 2078, 1784
 1505, 2078, 1832, 1694, 2079
 1506, 2078, 1369, 2080, 1593
 1507, 1718, 1593, 2078, 1719
 1508, 2078, 2080, 1719, 1593
 1509, 2081, 2082, 1430, 2083
 1510, 1488, 1737, 1046, 1738
 1511, 1362, 1859, 1046, 1829
 1512, 1799, 1300, 1829, 1362
 1513, 1269, 1043, 1276, 1044
 1514, 1674, 1363, 1799, 1828
 1515, 1799, 1070, 1362, 1363
 1516, 1799, 1674, 1829, 1831
 1517, 1546, 1545, 1551, 1097
 1518, 1347, 1353, 1403, 1384
 1519, 2084,  224,  211,  225
 1520, 1238, 1235, 1913, 1473
 1521, 1235, 1237, 1913, 1550
 1522, 1234, 1237, 1235, 1550
 1523, 1545, 1088, 1234, 2085
 1524, 1545, 1547, 2018, 1864
 1525, 1228, 1861, 1547, 1864
 1526, 1862, 2086, 1606, 2008
 1527, 1235, 1475, 1864, 1473
 1528, 2087, 1230, 1906, 1851
 1529, 1123, 1853, 1309, 1746
 1530, 1123, 1230, 1853, 1746
 1531, 1466, 1467, 1468, 1742
 1532, 1230, 1851, 2087, 1853
 1533, 1129, 1229, 1230, 1746
 1534, 1127, 1313, 1128,  482
 1535, 1127, 1312, 1314, 1870
 1536, 1311, 1425, 1976, 1504
 1537, 1468, 2088, 1870, 1743
 1538, 1311, 1299, 1465, 1537
 1539, 1468, 2089, 1469, 2090
 1540, 1851, 2091, 2092, 2087
 1541, 1851, 1854, 1860, 2093
 1542, 1851, 1853, 1852, 2087
 1543, 1916, 1928, 1961, 1103
 1544, 1457, 2094, 2095, 1458
 1545, 1961, 1916, 1962, 2059
 1546, 2021, 1960, 1768, 1168
 1547, 2021, 1961, 1960, 1963
 1548, 2052, 2059, 1961, 2022
 1549, 2052, 1961, 1768, 2022
 1550, 1123, 1309, 1127, 1746
 1551, 1314, 2096, 1870, 1312
 1552, 1870, 1468, 1743, 1127
 1553, 1314, 1312,  470, 2096
 1554, 1314, 1313,  477, 1124
 1555, 1314, 1317, 1588, 1312
 1556, 1314, 1312, 1588,  470
 1557, 1073, 1410, 1800, 1560
 1558, 1674, 1799, 1922, 1831
 1559, 1799, 1071, 1521, 1922
 1560, 1075, 1071, 1412, 1922
 1561, 1073, 1560, 1069, 1561
 1562, 1825, 1521, 1674, 1363
 1563, 1076, 1524, 1067, 1618
 1564, 1991, 1826, 2097, 1990
 1565, 1991, 1924, 1990, 1708
 1566, 1991, 2098, 1923, 1401
 1567, 1923, 1991, 2097, 2098
 1568, 2097, 1923, 2099, 1308
 1569, 1414, 1072, 1508, 1420
 1570, 1799, 1508, 1834, 1753
 1571, 1070, 1071, 1521, 1799
 1572, 1072, 1071, 1508, 1420
 1573, 1362, 1300, 1046, 1301
 1574, 1508, 1802, 1834, 1753
 1575, 1243, 1252, 1245, 1254
 1576, 1064, 1215, 1244, 1477
 1577, 1065, 1246, 1245, 1244
 1578, 1142, 1499, 1298, 1245
 1579, 1818, 2100, 2101, 1855
 1580, 1141, 1245, 1307, 1724
 1581, 1496, 1132, 1493, 1492
 1582, 1243, 1306, 1252, 1641
 1583, 1065, 1250, 1060, 1278
 1584, 1064, 1477, 1808, 1215
 1585, 1064, 1065, 1244, 1215
 1586, 1087, 1088, 1089, 1090
 1587, 1325, 2102, 1517, 1723
 1588, 1094, 1367, 1242, 1662
 1589, 1090, 1091, 1099, 1096
 1590, 1098, 1497, 1663, 1660
 1591, 1095, 1242, 1240, 1662
 1592, 1903, 1898, 1551, 1099
 1593,  729, 1542,  735, 1541
 1594, 1096, 2103, 1092, 1091
 1595, 2104, 1096, 2103, 1092
 1596, 2105, 1706, 1640, 1538
 1597, 2103, 1096, 1903, 1091
 1598, 1099, 1096, 1091, 1903
 1599, 1088, 2103, 1551, 1091
 1600, 2000, 1088, 2103, 1551
 1601, 1226, 1235, 1234, 1237
 1602, 1310, 1466, 1135, 1148
 1603, 1310, 1467, 1148, 1423
 1604, 1148, 1425, 1423, 1422
 1605, 1142, 1131, 1150, 1148
 1606, 1307, 1142, 1131, 1150
 1607, 1148, 1422, 1142, 1425
 1608, 2106, 2107,  796,  797
 1609, 1148, 1142, 1249, 1976
 1610, 2108,  526,  531,  525
 1611, 1407, 1760, 1406, 1404
 1612, 1521, 1066, 1363, 1069
 1613, 1076, 1522, 1562, 1054
 1614, 2096,  469,  476,  475
 1615, 1048, 1452, 1053, 1455
 1616, 1522, 1054, 1055, 1453
 1617, 1356,  825,  844,  824
 1618, 1075, 1521, 1810, 1561
 1619, 1052, 1053, 1455, 1048
 1620, 1544, 1317, 1460, 1588
 1621, 2061,  537,  536,  531
 1622, 1397,  701,  694,  695
 1623, 1544, 1461, 1549, 1460
 1624, 1311, 1544, 1537, 1465
 1625, 1296, 1459, 1297, 1299
 1626, 1296, 1544, 1461, 1459
 1627, 1544, 1528, 1317, 1529
 1628, 2109,  345,  344,  331
 1629, 1186,  432,   29,    5
 1630, 1686,  291,  277,  278
 1631, 1309, 1310, 1127, 1746
 1632, 2110, 2111,  989,  990
 1633, 1310, 1976, 1311, 1425
 1634, 1342, 1164, 1361, 1957
 1635,  199,  198,  212, 1651
 1636, 1352, 1354, 1350, 1342
 1637, 2112, 2113, 2114, 2115
 1638, 1345, 1342, 1353, 1351
 1639, 1342, 1361, 1164, 1353
 1640, 1431, 2094, 1457, 1458
 1641, 2116,  278,  265,  279
 1642, 1159,  310,  323,  309
 1643, 1814, 1457, 2117, 2014
 1644, 2118, 1357, 1670, 1669
 1645, 2119,   44,  210,   43
 1646, 1428, 1104, 1103, 1348
 1647, 1953,  175,   15,  176
 1648, 2120,  248,  247,  234
 1649, 2121, 2122,  927,  946
 1650, 1265, 1348, 1257, 1850
 1651, 1256, 2123, 1442, 1261
 1652, 1264, 1429, 1259, 1538
 1653, 1928, 1335, 1740, 1607
 1654, 1262, 1335, 1263, 1261
 1655, 1429, 1348, 1850, 1624
 1656, 1240, 1517, 1520, 2047
 1657, 1095, 1520, 1105, 1240
 1658, 1105, 1114, 1251, 1240
 1659, 1105, 1240, 1520, 2047
 1660, 1107, 1240, 1105, 2047
 1661, 1346, 2124, 2094, 1458
 1662, 1203, 1173, 1304, 1780
 1663, 2125,  173,   28,    1
 1664, 1450, 1121, 1122, 1114
 1665, 1108, 1267, 1203, 1146
 1666, 2126,  726,  732,   75
 1667, 2127, 2128, 2129,  755
 1668, 2101,  706,  707,  713
 1669, 1269, 1586, 1043, 1268
 1670, 1414, 1834, 1508, 1510
 1671, 2130, 1514, 1515, 1415
 1672, 1415, 1513, 2131, 2130
 1673, 1066, 1521, 1073, 1069
 1674, 1521, 1674, 1922, 1810
 1675, 1267, 1587, 1448, 1449
 1676, 1666, 1449, 1267, 1781
 1677, 1272, 1665, 1765, 1794
 1678, 1664, 1794, 1587, 1903
 1679, 1945, 1587, 1946, 1950
 1680, 2132, 2133,  942,  941
 1681, 1587, 1096, 1950, 2134
 1682, 1123, 1127, 1309, 1313
 1683, 1373, 1374, 1375, 1574
 1684, 2135,  775,  781,  774
 1685, 1375, 1374, 1659, 1574
 1686, 1372, 1373, 1322, 1374
 1687, 2136,  272,  285,  271
 1688, 1570, 1571, 1375, 2072
 1689, 1841, 1225, 1579, 1224
 1690, 2137,  204,  190,  191
 1691, 1167, 1284, 1814, 1083
 1692, 1582, 1167, 1814, 1083
 1693, 2138,  791, 2139,   91
 1694, 1992, 1841, 1225, 1842
 1695, 2140, 2141,  830,  831
 1696, 2120,  235,  248,  234
 1697, 2142,  193,   37,  194
 1698, 1210, 1695, 1581, 1083
 1699, 2143,  770,  769,  763
 1700, 1083, 1085, 1578, 1813
 1701, 2144,   32,  189,  188
 1702, 2145, 2146, 2147,  521
 1703, 2148, 1538, 2149, 1429
 1704, 1624, 1856, 1348, 1850
 1705, 1624, 1429, 1431, 1849
 1706, 1428, 1104, 1607, 1103
 1707, 1863,  495,  494,  488
 1708, 1334, 1429, 1685, 1430
 1709, 1941,  220,  219,  206
 1710, 1758, 2150, 2151, 1707
 1711, 1429, 1259, 2149, 1850
 1712, 1334, 1685, 1429, 1538
 1713, 1108, 1105, 1449, 1443
 1714, 1504, 2152, 1756, 1505
 1715, 1267, 1272, 1666, 1271
 1716, 1272, 1791, 1145, 1790
 1717, 2153,  683,  154,  155
 1718, 2154,  389,  388,  375
 1719, 1449, 1660, 1779, 1781
 1720, 1887, 1955, 1890, 2155
 1721, 1887, 1889, 2156, 1888
 1722, 2157,  309,  295,  296
 1723, 1914,  840,  821,  841
 1724, 2158,  843,  842,  823
 1725, 1194,  644,  645,  650
 1726, 2159,  596,  595,  590
 1727, 1857, 1882, 1889, 1888
 1728, 1887, 2160, 1884, 1926
 1729, 1857, 1887, 1889, 1890
 1730, 1887, 1926, 1884, 1858
 1731, 2086, 1977, 1606, 2008
 1732, 2161,   14,  175,  174
 1733, 2086, 1977, 1507, 1606
 1734, 2162, 2153, 2163,  810
 1735, 2164, 2086, 2009, 1977
 1736, 2086, 2164, 2165, 1507
 1737, 2126,   76,  302,  315
 1738, 2121, 2086, 2009, 2164
 1739, 1982, 1847,  693,  699
 1740, 2138,   91,   90,  790
 1741, 2086, 2164, 2121, 2165
 1742, 2020, 1031, 1030, 1011
 1743, 1595, 1576, 1603, 1216
 1744, 2136, 1516,  271, 2166
 1745, 1693, 1700, 2079, 1699
 1746, 1380, 1644, 1375, 1727
 1747, 2041, 2127,  798,  797
 1748, 1374, 1380, 1732, 1379
 1749, 1576, 1572, 1597, 1575
 1750, 1643, 1218, 1576, 1216
 1751, 1376, 1576, 1632, 1575
 1752, 2167, 1788,  918,  919
 1753, 2168,  861,  841,  842
 1754, 1956, 2004, 2047, 2005
 1755, 1246, 1245, 1243, 1279
 1756, 1871, 1642, 1218, 1377
 1757, 1764, 1666, 1272, 1271
 1758, 2169, 1944, 1663, 1665
 1759, 1866,  280,  294,  293
 1760, 2170, 2169, 1944, 1663
 1761, 2171, 1892, 2172, 1011
 1762, 2173,  563,  557,  118
 1763, 2174, 2175,  211,  198
 1764, 2169, 1794, 1764, 1665
 1765, 1709,  333,  320,  334
 1766, 2176, 1260, 2177,  802
 1767, 1225, 1622, 2178, 1623
 1768, 2179,  122,  581,  121
 1769, 1245, 1279, 1248, 1499
 1770, 1796,  243, 1287,  230
 1771, 1649,  187,  200,  186
 1772, 2180,  724,  731,  730
 1773, 1944, 2169, 1764, 1665
 1774, 2181,  451, 2182, 2183
 1775, 2145,  112,  113,  527
 1776,  562,  561, 2184,  556
 1777, 1931, 1444, 2185, 2060
 1778, 1666, 1944, 1585, 1763
 1779, 1638, 1417,  289,  302
 1780, 2186,  793,  794,  813
 1781, 1666, 1764, 1944, 1763
 1782, 2187,  813,  832,  812
 1783, 1289, 1176, 1293, 1169
 1784, 1171, 1565, 1175, 1172
 1785, 1109, 1839, 1813, 1814
 1786, 1528, 2188, 1527, 2189
 1787, 1101, 1607, 1103, 1960
 1788, 1109, 1110, 1176, 1564
 1789, 2190,  536,  542,  541
 1790, 2191,  441,  435,  442
 1791, 1848,  770, 1745,  776
 1792, 1101, 1109, 1293, 1102
 1793, 1293, 1101, 1170, 1176
 1794,  297, 2166,  283,  296
 1795, 1755,  912,  911,  892
 1796, 2192,  192,  205,  191
 1797, 1403, 1109, 1102, 1441
 1798, 2137, 2193,  190,  203
 1799, 1101, 1111, 1109, 1403
 1800, 2139,   92,   91,    8
 1801, 1780, 2194, 2070, 1106
 1802, 1174, 1303, 1178, 1177
 1803, 1203, 1173, 1924, 1304
 1804, 1843, 2077, 2003, 1253
 1805, 1655,  200,  201,  214
 1806, 1780, 1568, 2195, 2196
 1807, 1203, 1121, 1780, 1106
 1808, 1121, 1780, 1106, 2194
 1809, 1974, 1796, 1975,  230
 1810, 2197,  926,  927,  946
 1811, 1580,  888,  889,  908
 1812, 2198,   92,   93,  437
 1813, 1872, 1878, 1876,  765
 1814, 1336, 1446, 1447, 1120
 1815, 1338, 1337, 1336, 1395
 1816, 1628, 1758, 1706, 1657
 1817, 1105, 1114, 1107, 1450
 1818, 1428, 1348, 1265, 1429
 1819, 2199,  139,  142,  642
 1820, 1532, 1628, 1626, 1339
 1821, 1925, 2023, 2200, 2196
 1822, 1628, 1447, 1334, 1758
 1823, 1638,  290,  303,  289
 1824, 1373, 1377, 1570, 1375
 1825, 1374, 1379, 1732, 1439
 1826, 1374, 1633, 1659, 1574
 1827, 1574, 1633, 1322, 1374
 1828, 1761,  124,  125,  599
 1829, 1851, 1860, 1910, 2093
 1830, 2201,  132,  629,   13
 1831, 1851, 2092, 2091, 2202
 1832, 1851, 2203, 2093, 1910
 1833, 2203, 2204, 1837, 1909
 1834, 2205,   22,  182,  183
 1835, 2203, 1837, 1911, 1909
 1836, 2203, 2206, 1910, 1911
 1837, 2203, 2204, 2092, 1838
 1838, 2136,  298,  284,  285
 1839, 1433,  128,  129,  623
 1840, 2207,  598,  603,  597
 1841, 1703, 1398, 1399, 1400
 1842, 1321, 1438, 1436, 1379
 1843, 1440, 1490, 1491, 2183
 1844, 1440, 2182, 1656, 1646
 1845, 1319, 1592, 1322, 1328
 1846, 1319, 1322, 1330, 1320
 1847, 2079,  402, 1697,  401
 1848, 1323, 1656, 1440, 1439
 1849, 1238, 1383, 1476, 1472
 1850, 1226, 1475, 1230, 1227
 1851, 1383, 1476, 2058, 1942
 1852, 1226, 1234, 1232, 1237
 1853, 1234, 1382, 2208, 1389
 1854, 1101, 1960, 1103, 1102
 1855, 1238, 1475, 1235, 1473
 1856, 2209,  598, 1783, 2210
 1857, 2211,  179,  173,  180
 1858, 1823, 1847, 1982,  699
 1859, 1237, 1383, 1913, 1382
 1860, 1090, 1088, 1092, 1087
 1861, 2212, 1678,  392,  391
 1862, 1098, 1094, 1090, 1095
 1863, 2213,  182,   23,  181
 1864, 2214,   21,  183,  184
 1865, 1099, 1091, 1097, 1551
 1866, 1760,  416,  403,  417
 1867, 1090, 1088, 1089, 1100
 1868, 2215,  639,  638,  632
 1869, 1099, 1501, 1498, 1898
 1870, 1664, 1794, 1903, 1498
 1871, 1089, 1503, 1606, 1977
 1872, 2216,   13,  174,  173
 1873, 1050, 1018, 1038, 1037
 1874, 2209,  592,  598,  597
 1875, 2217,  803,  161,  804
 1876, 1098, 1662, 1095, 1660
 1877, 2019,  574,  580,  579
 1878, 2212, 2218, 2219,  405
 1879, 1141, 1242, 1241, 1724
 1880, 1241, 1254, 1245, 1724
 1881, 1421, 1298, 1142, 1425
 1882, 1452,  639,  633,  640
 1883, 1142, 1976, 1425, 1504
 1884, 1148, 1150, 1142, 1422
 1885, 1421, 1142, 1422, 1425
 1886, 1321, 1438, 1437, 1436
 1887, 2220,  625,   17,  626
 1888, 1328, 1327, 2221, 1979
 1889, 1619,  177,  176,   16
 1890, 1172, 1563, 1399, 1564
 1891, 2222,  183,  177,  184
 1892, 1328, 2221, 1327, 2223
 1893, 1328, 1327, 1741, 2223
 1894, 2224,  630,  636,  140
 1895, 1319, 1321, 1635, 1327
 1896, 1984,   17,   18,  178
 1897, 1328, 1378, 1567, 1980
 1898, 1644, 1642, 1641, 1380
 1899,  373,  360, 2225,  374
 1900, 1438, 1436, 1379, 1461
 1901, 1884, 2226, 2227, 2160
 1902, 2228,  359,  346,  360
 1903, 2229,  120, 1029,  121
 1904, 1372, 1377, 1373, 1375
 1905, 1635, 1321, 1319, 1323
 1906, 2230, 2231,  569, 2229
 1907, 1372, 1376, 1592, 1322
 1908, 1619,   17,  177,   16
 1909, 1319, 1328, 1741, 1592
 1910, 1379, 1461, 1436, 1372
 1911, 1212,   18,   19,  178
 1912, 1296, 1461, 1379, 1297
 1913, 1436, 1489, 1526, 1549
 1914, 1436, 1437, 1489, 1549
 1915, 1292, 1983, 1993, 1841
 1916, 1085, 1577, 1578, 1813
 1917, 1959, 1170, 2232, 2233
 1918, 2234,  183,  176,  177
 1919, 2235,  181,  174,  175
 1920, 2232, 1168, 1169, 1170
 1921, 1959, 1963, 2236, 2233
 1922, 2232, 2237, 1168, 2200
 1923, 2021, 2232, 1960, 1168
 1924, 1816,  372,  385,  371
 1925, 1179, 2238, 1191, 1190
 1926, 1083, 1581, 1155, 1284
 1927, 1180, 1221, 1183, 1219
 1928, 1734,  578, 1905,  584
 1929, 1849, 1856, 1850, 2239
 1930, 1083, 1223, 1210, 1084
 1931, 1220, 1211, 1224, 1219
 1932, 2240,  351,  352,  365
 1933, 1080, 2015, 1525, 1530
 1934, 1180, 1155, 1225, 1579
 1935, 1223, 1078, 1224, 1220
 1936, 1950, 1951, 2241, 2242
 1937, 1950, 2243, 2134, 2136
 1938, 1950, 2244, 2104, 2242
 1939, 2244, 2104, 2245, 1950
 1940, 1545, 2085, 1234, 1550
 1941, 2222,  177,  178,  184
 1942, 1545, 1089, 1130, 1088
 1943, 2246,  430, 2247,   25
 1944, 1140, 1094, 1367, 1242
 1945, 2211,  173,  174,  180
 1946, 1778,  181,  175,  182
 1947, 1862, 2086, 2165, 1507
 1948, 2234,  182,  176,  183
 1949, 1545, 1088, 2085, 1551
 1950, 1547, 2017, 1546, 2248
 1951, 2249, 2250,   47,  262
 1952, 1097, 1500, 2017, 1100
 1953, 2251,  954, 2196,  935
 1954, 1547, 2017, 2248, 1861
 1955, 1862, 2252, 2017, 1861
 1956, 2253,   19,   20,  178
 1957, 1802, 1988, 1753, 1751
 1958, 1802, 1751, 1995, 1932
 1959, 1834, 1510, 1902, 1802
 1960, 2254,  322,  321,  308
 1961, 1512, 1834, 1510, 1902
 1962, 1802, 1995, 1752, 1689
 1963, 1414, 1420, 1508, 1834
 1964, 1508, 1689, 1752, 1509
 1965, 1618, 1562, 1619, 1999
 1966, 1522, 1952, 1415, 1893
 1967, 1075, 1810, 1412, 1406
 1968, 1076, 1523, 1415, 1513
 1969, 1782,  359,  372,  358
 1970, 1593, 1364, 1302, 1368
 1971, 2253,   20,  184,  178
 1972, 1075, 1054, 1055, 1076
 1973, 1420, 1416, 1074, 1412
 1974, 1893, 2255, 2131, 1523
 1975, 1055, 1049, 1051, 1966
 1976, 1074, 1412, 1075, 1071
 1977, 1073, 1521, 1075, 1561
 1978, 2080, 1370, 1828, 2256
 1979, 2080, 2154, 1828, 1369
 1980, 2080, 2154, 2257, 2256
 1981, 2080, 2258, 1370, 2256
 1982, 2246,   25,  180,   24
 1983, 2080, 2257, 1719, 2258
 1984, 1156, 1157, 1714, 1155
 1985, 1179, 1220, 1184, 2259
 1986, 2260,  642,  140,  139
 1987, 1187, 1202, 1195, 1196
 1988, 1179, 1181, 1189, 1192
 1989, 1187, 1183, 1553, 1188
 1990, 1153, 1156, 1157, 1166
 1991, 1281, 1182, 1716, 1192
 1992, 1166, 1202, 1182, 1714
 1993, 2205,   23,  182,   22
 1994, 2261, 2262, 2263, 2264
 1995, 2097,  336,  350,  349
 1996, 2214,   22,  183,   21
 1997, 1242, 1095, 1240, 1517
 1998, 1089, 1147, 1086, 1087
 1999, 1520, 1325, 1517, 1095
 2000, 1325, 1094, 1095, 1093
 2001, 1095, 1449, 2134, 1096
 2002, 1242, 1240, 1662, 1366
 2003, 1097, 1547, 2017, 1546
 2004, 2017, 1861, 2265, 2248
 2005, 2017, 2266, 1500, 2267
 2006, 2017, 2248, 2265, 2267
 2007, 1857, 1889, 1882, 1846
 2008, 1097, 1546, 2017, 1500
 2009, 1360, 1166, 1714, 1921
 2010, 1291, 1365, 2268, 1821
 2011, 1342, 1346, 1341, 1343
 2012, 1844, 1166, 1361, 1354
 2013, 1885, 1361, 1163, 1957
 2014, 2269,  408,  421,  407
 2015, 1157, 1165, 1166, 1714
 2016, 2270, 1356, 2074, 1350
 2017, 1153, 1885, 1715, 1166
 2018, 1342, 1957, 1346, 1164
 2019, 1210, 1207, 1683, 1687
 2020, 1172, 1399, 1923, 1288
 2021, 2271, 2174, 1648, 1161
 2022, 1234, 1550, 2085, 2000
 2023, 1545, 1088, 1097, 1100
 2024, 1497, 1096, 1587, 1449
 2025, 1547, 2017, 1606, 1100
 2026, 1720, 2272,  745, 1589
 2027, 2017, 1100, 1502, 1503
 2028, 1134, 1234, 1133, 1233
 2029, 1371,   29,   30,  186
 2030, 1098, 1503, 1094, 1662
 2031, 1545, 1551, 2085, 2018
 2032, 2017, 1502, 1100, 1500
 2033, 1115, 1117, 1120, 1931
 2034, 1115, 1113, 1114, 1059
 2035, 1107, 2047, 1105, 1205
 2036, 1059, 2047, 1107, 2005
 2037, 2135,  774,  781,  780
 2038, 1569, 1402, 1122, 1768
 2039, 1113, 1251, 1240, 1247
 2040, 1105, 1449, 1717, 1779
 2041, 1095, 1105, 1717, 1240
 2042, 1105, 1251, 1114, 1450
 2043, 1186,    5,   85,   86
 2044, 1345, 1343, 1344, 1818
 2045, 1908, 1638, 1720, 1653
 2046,  738, 1720,  739, 1640
 2047, 1350, 2270, 1344, 2074
 2048, 2273,  438,  444,   30
 2049, 1350, 2270, 2274, 1344
 2050, 2275,  432,  439,  438
 2051, 1352, 1355, 1360, 1359
 2052, 1354, 1355, 2074, 1360
 2053, 1354, 2074, 1355, 1356
 2054, 1350, 2158, 1855, 2276
 2055, 1352, 1359, 1351, 1356
 2056, 1350, 1351, 2158, 1356
 2057, 2273,  187, 1649,  186
 2058, 1109, 1813, 1839, 1288
 2059, 1309, 1127, 1310, 1312
 2060, 1127, 1880,  482, 1128
 2061, 1839, 1110, 2277, 2024
 2062, 1123, 2087, 1125, 1853
 2063, 1534,  850,  851,  870
 2064, 1316, 1310, 1311, 1309
 2065, 1230, 1746, 1227, 1853
 2066, 2278,  187,   31,  188
 2067, 2144,  188, 1654, 2278
 2068, 1226, 1236, 1475, 1235
 2069, 1123, 1853, 1230, 2087
 2070, 1627, 1543, 2279, 1532
 2071, 1543, 1559, 1627, 2280
 2072, 1559, 2281, 2039, 2282
 2073, 1559, 2280, 2282, 2039
 2074, 1532, 1559, 1340, 1478
 2075, 2283,   34,  191,  190
 2076, 1559, 2281, 1557, 1556
 2077, 1375, 2072, 1727, 1644
 2078, 2181,  444,  445,  451
 2079, 1338, 1559, 1556, 1478
 2080, 2175,  225, 2284, 2084
 2081, 2278,  450,   31,  444
 2082, 1118, 1120, 1740, 1336
 2083, 1563, 2277, 1110, 1712
 2084, 1102, 1403, 1104, 1101
 2085, 1565, 1564, 1176, 1110
 2086, 1172, 1177, 1288, 1923
 2087, 1768, 1565, 1607, 1569
 2088, 2285,  202,  215,  201
 2089, 2144,  189,   32,   33
 2090, 2286,  201,  188,  202
 2091, 1402, 1768, 1565, 1168
 2092, 1101, 1110, 1104, 1607
 2093, 2287,  596, 2288, 2289
 2094, 2243, 2290, 2046, 2166
 2095, 2243, 2046, 1443, 1520
 2096, 2283,  191,   34,   35
 2097, 2243, 2291, 1448, 1443
 2098, 2288,  590, 2159, 2292
 2099, 1131, 1723, 1151, 1147
 2100, 1148, 1249, 1977, 1976
 2101, 2293,   33,  456,  462
 2102, 2294,  203,  216,  202
 2103, 1651, 1655, 1649, 1645
 2104, 1297, 1642, 1243, 1298
 2105, 1298, 1142, 1504, 1499
 2106, 2295,  192,  191,   35
 2107, 1298, 1642, 1279, 2029
 2108, 1142, 1307, 1306, 1422
 2109, 1885, 1958, 1845, 1957
 2110, 1679,  457,  458,  464
 2111, 1314,  471,  477,  470
 2112, 1193, 1921, 1201, 2296
 2113, 1166, 1921, 1202, 1714
 2114, 1198, 1882, 1943, 1883
 2115, 1198, 1844, 1846, 1199
 2116, 1298, 1297, 2029, 1299
 2117, 1373, 1376, 1576, 1377
 2118, 2297,  463,  469,  462
 2119, 1595, 1244, 1643, 1216
 2120, 1643, 1572, 1576, 1377
 2121, 2298,  474,  480,   36
 2122, 1642, 1643, 1644, 1243
 2123, 2299,  206,  205,  192
 2124, 1380, 1642, 1297, 1871
 2125, 2300, 2142,  480,  486
 2126, 1380, 1642, 1641, 1297
 2127, 1373, 1572, 1570, 1377
 2128, 2295,   35,  468,  474
 2129, 2142,  194,   37,   38
 2130, 1380, 1297, 1641, 1727
 2131, 1463, 1469, 1975, 2026
 2132,  590, 2289, 1650, 2288
 2133, 2301, 1881, 1611, 2142
 2134, 1310, 1425, 1424, 1423
 2135, 1310, 1469, 1467, 1423
 2136, 2298,   36,  193,  192
 2137, 1424, 1469, 1463, 1680
 2138, 1469, 2137, 1680, 2090
 2139, 1469, 1680, 2137, 2026
 2140, 1870, 1880, 2088,  481
 2141, 2142,  194, 1881,  193
 2142, 1424, 1312, 1469, 1680
 2143, 2302,  832,  833,  852
 2144, 1064, 1808, 1477, 1479
 2145, 2288, 1831, 2292, 2159
 2146, 1395, 1119, 1118, 1058
 2147, 2303,   39,  196,  195
 2148, 1064, 1395, 1058, 1808
 2149, 1556, 1554, 1555, 2304
 2150, 1120, 1769, 1931, 1444
 2151, 1273, 1215, 1065, 1808
 2152, 2301,   38,  486,  492
 2153, 2287, 1831, 2288, 2159
 2154, 2305, 1941,  206, 1742
 2155, 1064, 1479, 1395, 1808
 2156, 1609,  487,  488,  494
 2157, 2301,  492,   39,   38
 2158, 1080, 1364, 1081, 1821
 2159, 1101, 1403, 1109, 1102
 2160, 1289, 1582, 1293, 1109
 2161, 2119, 2115, 2306,  210
 2162, 1175, 1565, 1569, 1563
 2163, 1234, 1382, 2000, 2208
 2164, 1544, 1317, 1588, 1529
 2165, 1526, 1549, 1529, 1544
 2166, 1317, 1588, 1529,  471
 2167, 2307,  209,  196,  210
 2168, 1317, 1312, 1311, 1460
 2169, 1544, 1588, 1460, 1549
 2170, 1314, 1588, 1317,  471
 2171, 1880,  488,  487,  481
 2172, 1941,  206, 1881,  207
 2173, 2164, 1507, 1854, 2165
 2174, 1419, 1403, 1353, 1441
 2175, 1152, 1816, 1840, 1814
 2176, 2308,  196,   40,  197
 2177, 2309,  106,  107,  507
 2178, 1152, 1840, 1816, 2310
 2179, 1152, 1840, 1164, 1814
 2180, 1661, 1717, 2055, 1662
 2181, 2055, 1366, 2057, 1662
 2182, 2311,   41,  504,  110
 2183, 1969, 1768, 1122, 1925
 2184, 1610,  492,  493,  499
 2185, 2306,  210,  197,   43
 2186, 2021, 1969, 1768, 2022
 2187, 1970, 1925, 2023, 1969
 2188, 1969, 1768, 1116, 1122
 2189, 2052, 1969, 1768, 1116
 2190, 1968, 1969, 1970, 1809
 2191, 1308, 1368, 1301, 1302
 2192, 1039, 1041, 1294, 1042
 2193, 2311,   42,  197,   41
 2194, 1040, 1041, 1308, 1301
 2195, 2312, 1747, 1329, 1741
 2196, 1747, 1632, 1748, 2313
 2197, 1747, 1329, 1330, 1745
 2198, 1747,  771, 1874,  772
 2199, 1747,  772, 2313,  778
 2200, 1740, 1398, 1608, 1775
 2201, 1175, 1451, 1121, 1400
 2202, 1527,  466, 2314,  467
 2203, 1402, 1121, 1122, 1925
 2204, 1115, 1114, 1112, 1122
 2205, 1740, 1337, 1928, 1116
 2206, 1117, 1446, 1931, 1451
 2207, 1329, 1331,  782,  783
 2208, 2315, 2084, 2284, 2316
 2209, 2167, 1787, 2317, 1169
 2210, 1992, 1789, 1292, 1842
 2211, 1622, 1996,  920, 1992
 2212, 1464, 1975, 1422, 1287
 2213, 2286,  202,  188,  189
 2214, 1789, 1842, 1996, 1441
 2215, 1745,  777,  770,  771
 2216, 1290, 1789, 1293, 1292
 2217, 1992, 1994, 1789, 1996
 2218, 1789, 1292, 1787, 1994
 2219, 1655,  200,  214,  213
 2220, 1348, 1855, 1349, 1257
 2221, 1495, 2318,  231,  218
 2222, 2319,  463,  464,  470
 2223, 2193,  190,  203,  189
 2224, 1348, 1856, 1855, 1850
 2225, 1528, 1527, 1558, 2189
 2226, 1333, 1775, 1447, 1336
 2227, 2320, 1504, 2321, 1976
 2228, 1342, 1957, 1361, 1341
 2229, 1614, 2168, 1916, 1442
 2230, 2299,  193,  206,  192
 2231, 2285, 1726,  215, 2294
 2232, 2183,  458,  451,  452
 2233, 1348, 1257, 1349, 1442
 2234, 2285,  214,  201,  215
 2235, 1348, 1614, 1349, 1384
 2236, 1881,  194,  207,  193
 2237, 1755,  930,  911,  931
 2238, 1313,  476,  483,  482
 2239, 2322, 2208, 1493, 1670
 2240, 1614, 2168, 1442, 1349
 2241, 1310, 1425, 1148, 1976
 2242, 1311, 1544, 1465, 1317
 2243, 1421, 1296, 1424, 1464
 2244, 1603, 2323, 2324, 2325
 2245, 1421, 1298, 1306, 1142
 2246, 2305,  205,  219,  218
 2247, 1380, 1643, 1644, 1642
 2248, 1827, 1043, 1276, 2068
 2249, 2303, 2326,  195,  196
 2250, 1488, 1738, 1276, 1487
 2251, 1488, 1735, 1734, 1739
 2252, 1880,  488,  481,  482
 2253, 1609,  493,  487,  494
 2254, 1301, 1046, 1043, 1300
 2255, 1272, 1587, 1666, 1665
 2256, 2303, 2327, 2301,  195
 2257, 1269, 1271, 1268, 1044
 2258, 1108, 1267, 1781, 1585
 2259, 1545, 1550, 2018, 2085
 2260, 1618, 1562, 1620, 1619
 2261, 2328,  223,  222,  209
 2262, 2306,  510, 2115,  516
 2263, 1208, 1524, 1211, 1985
 2264, 2306,   42,   43,  197
 2265, 1525, 1524, 1523, 2015
 2266, 1821, 1983, 1082, 1530
 2267, 1530, 1082, 1080, 2015
 2268, 1211, 2329, 1524, 2015
 2269, 1072, 1068, 1513, 1070
 2270, 2113,  504,  109,  110
 2271, 2328, 2330, 2307,  209
 2272, 1066, 1071, 1521, 1070
 2273, 2331,  505,  498,  499
 2274, 2010, 1630, 2220, 1985
 2275, 1524, 2010, 1630, 2329
 2276, 1079, 1067, 1618, 1800
 2277, 1206, 1208, 1211, 1985
 2278, 1985, 1630, 2220, 1562
 2279, 1067, 1513, 1068, 1530
 2280, 1693, 1208, 1696, 1209
 2281, 2174,   83,   84,  211
 2282, 1618, 1620, 1985, 1209
 2283, 1068, 1363, 1069, 1369
 2284, 1825, 1069, 1832, 1561
 2285, 1651,  212,  199,  213
 2286, 1863,  495, 1909, 1912
 2287, 1047, 1508, 1799, 1753
 2288, 1829, 2332, 1831, 1674
 2289, 1302, 1363, 1369, 1370
 2290, 1427, 1776, 2025, 2109
 2291, 1427, 2025, 1776, 2024
 2292, 1776, 1777, 1110, 2024
 2293, 1427, 1776, 1617, 1426
 2294, 2333, 2334, 2174, 2135
 2295, 1776, 2335, 1617, 1426
 2296, 2026,  217,  203,  204
 2297, 1711, 1110, 1563, 1775
 2298, 1776, 1426, 1775, 2335
 2299, 2336,  793,  792,  172
 2300, 1711, 1776, 2063, 1777
 2301, 2301,  195,   38,   39
 2302, 1456, 1814, 1167, 1164
 2303, 1733,  217,  230,  216
 2304, 1566,  852,  871,  851
 2305, 2337,  237,  224,  238
 2306, 2026,  216,  203,  217
 2307, 2294,  215,  202,  216
 2308, 1594, 1577, 1081, 1288
 2309, 1104, 1102, 1103, 1384
 2310, 2305,  206,  219,  205
 2311, 1153, 1167, 1152, 1164
 2312, 1418, 1403, 1347, 1353
 2313, 2188,  472,  473,  479
 2314, 2197,  945,  926,  946
 2315, 1941,  207,  220,  206
 2316, 1974,  217,  218,  231
 2317, 1403, 1102, 1384, 1441
 2318, 1441, 1907, 1842, 1997
 2319, 1879, 1129, 1476, 1128
 2320, 1997, 2178, 1907, 1225
 2321, 2338,  101,  100,  963
 2322, 1997, 1996, 1842, 1441
 2323, 1997, 1907, 1842, 1225
 2324, 1421, 1285, 1464, 1422
 2325, 1243, 1641, 1255, 1644
 2326, 1380, 1727, 1641, 1644
 2327,  933,  934, 1138, 2339
 2328, 1285, 1641, 1306, 1297
 2329, 1727, 1380, 1297, 1732
 2330, 2311,    6,  110,   42
 2331, 1381, 1390, 1389, 1232
 2332, 2318,  232,  219,  233
 2333, 1643, 1642, 1218, 1246
 2334, 1596, 1598, 1572, 1573
 2335, 1595, 1603, 1597, 1602
 2336, 1602, 1597, 1595, 1598
 2337, 1380, 1643, 1570, 1644
 2338, 1496, 2318, 1493,  233
 2339, 1595, 2032, 1596, 1393
 2340, 2322,  233,  220,  234
 2341, 2328, 1392, 1391,  222
 2342,  446, 1635, 2182, 1490
 2343, 1440, 1635, 1490, 2182
 2344, 1439, 1379, 1462, 1438
 2345, 1491, 1489,  453, 1490
 2346, 1490, 1978, 2340, 1437
 2347,  453, 1978,  447, 1490
 2348, 2341,  440,  441,  447
 2349, 2333,   83,  211,  224
 2350, 1720,  289,  276, 1653
 2351, 1490, 2341, 1635, 2340
 2352, 1490, 2340,  447, 2341
 2353, 2333,  768,  774,   82
 2354, 1626, 2342, 1625, 1681
 2355, 1626, 2116, 1681, 1867
 2356, 1728,  215,  228,  214
 2357, 1626, 1681, 2116, 2342
 2358, 1064, 1065, 1215, 1808
 2359, 1626, 1867, 1681, 1483
 2360, 2081, 2124, 2343, 2344
 2361, 2143,  764,  757,  758
 2362, 2081, 2345, 2344, 2343
 2363, 1733,  216,  229,  215
 2364, 2302,  851,  832,  852
 2365, 2081, 2082,  342, 2343
 2366, 2081, 2346, 1430, 2094
 2367, 2347,  227,  213,  214
 2368, 2316,  238,  225,  239
 2369, 2081, 2094, 2345, 2346
 2370, 2083, 2081, 2346, 1430
 2371, 2118, 2120, 2208, 2000
 2372, 1640, 1589,  739, 1599
 2373, 2081, 2083,  343, 2082
 2374, 1584,  871,  890,  870
 2375, 1518,  270,  257,  271
 2376, 1496,  246,  232,  233
 2377, 2225, 1722, 1812, 1577
 2378, 2318,  219,  232,  218
 2379, 1755,  911,  912,  931
 2380, 2348,  544,  538,  539
 2381, 2064, 1728, 1286,  241
 2382, 2030,  252,  239,  253
 2383, 1815, 1577, 1722, 1288
 2384, 1815, 1839, 1813, 1288
 2385, 1815, 1813, 1839, 1814
 2386, 2349,  555,  550,  556
 2387, 1815, 1839, 2228, 1782
 2388, 2318,  233,  219,  220
 2389, 2166,  283,  270,  284
 2390, 1815, 1839, 1782, 1814
 2391, 2350,  529,  534,  528
 2392, 2351,  927,  907,  908
 2393, 1238, 1913, 1383, 1471
 2394, 2243, 1520, 1443, 1448
 2395, 2046, 1205, 1443, 1520
 2396, 2250,  534,   47,   46
 2397, 2243, 1520, 2136, 2166
 2398, 1205, 2048, 2005, 2047
 2399, 2048, 2046, 2047, 1205
 2400, 1496, 1495, 2318,  232
 2401, 1392,  222,  223,  236
 2402, 2118,  247,  233,  234
 2403, 2047, 2048, 2005, 2045
 2404, 2249,  540,  546,   48
 2405, 2352,  260,  259,  246
 2406, 2046, 2047, 1205, 1520
 2407, 1391,  234,  221,  235
 2408, 2353,   45,  223,   44
 2409, 2046, 2290, 1205, 2157
 2410, 1392,  235,  222,  236
 2411, 2046, 2047, 2166, 2045
 2412, 1234, 1382, 1550, 2000
 2413, 1474, 1910, 1475, 1835
 2414, 1238, 1474, 1473, 1472
 2415, 1130, 1089, 1086, 1088
 2416, 2119,   44,  516,  522
 2417, 1235, 1236, 1475, 1238
 2418, 1476, 2058, 1912, 1472
 2419, 2354,  248,  249,  262
 2420, 1609, 2058,  494, 1863
 2421, 1609,  493, 2058, 1610
 2422, 1879, 1880, 1129, 1128
 2423, 1476, 1128, 1906, 1863
 2424, 2337,  238,  224,  225
 2425, 1472, 1476, 2058, 1383
 2426, 1236, 1230, 1475, 1909
 2427, 1129, 1476, 1128, 1906
 2428, 2316,  239,  225,  226
 2429, 1879, 1942, 2327, 1610
 2430, 1679, 1549, 1438, 1460
 2431, 1438, 1440, 1437, 1491
 2432,  237,   81, 2355,   82
 2433, 1296, 1544, 1311, 1460
 2434, 1460, 2319, 1312, 1680
 2435, 1296, 1297, 1379, 1462
 2436, 2356,   80,  756,  762
 2437, 2357,  769, 1848,  775
 2438, 1729,  228,  229,  242
 2439, 1424, 1680, 1460, 1312
 2440, 1464, 1285, 1725, 1733
 2441, 1285, 1464, 1287, 1733
 2442, 1285, 1286, 1641, 1729
 2443, 1297, 1462, 1285, 1727
 2444, 2358,  263,  264,  277
 2445,  752, 1901,  751,  758
 2446, 1725, 1285, 1462, 1727
 2447, 2071,  239,  226,  240
 2448, 1383, 1470, 2112, 1472
 2449, 1942, 1383, 2112, 2058
 2450, 2359,  252,  251,  238
 2451, 1381, 1391, 1382, 1389
 2452, 1381, 1383, 1387, 2115
 2453, 2360,  259,  260,  273
 2454, 1795,  244,  230,  231
 2455, 1226, 1229, 1129, 1232
 2456, 1238, 1235, 1237, 1913
 2457, 2361, 1485, 2362, 2172
 2458, 1236, 1230, 1909, 1906
 2459, 2363,  241,  242,  255
 2460, 1475, 1861, 1864, 1835
 2461, 1879, 1609, 1476, 1942
 2462, 1899, 2034, 2033, 2364
 2463, 1372, 1380, 1375, 1374
 2464, 1596, 1571, 2030, 2073
 2465, 1143,  311,  310,  297
 2466, 2365,  539,  533,  114
 2467, 1571, 2315, 2316, 2073
 2468, 2316, 1571, 1659, 2315
 2469, 1795,  243,  230,  244
 2470, 1399, 1564, 2277, 2366
 2471, 2367, 2338,  101,  491
 2472, 2073, 2315, 1573, 1571
 2473, 2182,  445,  452,  451
 2474, 1379, 1732, 1462, 1297
 2475, 2363,  256,  255,  242
 2476, 2233, 2167, 2317, 1170
 2477, 2021, 2200, 2232, 1168
 2478, 1121, 1106, 1450, 2194
 2479, 1496,  246,  245,  232
 2480, 2118,  246,  233,  247
 2481, 1325, 1242, 1723, 1517
 2482, 1325, 1517, 2102, 1518
 2483, 1105, 1205, 2047, 1520
 2484, 1141, 1241, 1245, 1724
 2485, 1241, 1062, 1059, 1060
 2486, 1059, 1107, 2047, 1240
 2487, 1489, 1548,  459,  460
 2488, 1109, 1839, 1564, 1288
 2489, 1436, 1567, 1526, 1652
 2490, 2368,  236,  249,  235
 2491, 2353,  522,  528,   45
 2492, 1489, 1652, 1548,  460
 2493, 1489, 1526, 1549, 1548
 2494, 1512, 2210, 1684, 1730
 2495, 1414, 1512, 1510, 1413
 2496, 2369,   45,   46,  236
 2497, 1245, 1724, 1254, 1252
 2498, 1724, 1062, 2004, 1956
 2499, 2370,  523,  528,  522
 2500, 1241, 1278, 1245, 1060
 2501, 1242, 1517, 1724, 1723
 2502, 2371,  530,  535,  529
 2503,  696, 1954,  690,  393
 2504, 1089, 1140, 1147, 1094
 2505, 1900,  751,  757,  750
 2506, 2064,  240,  254,  253
 2507,  251, 2356, 2337,  237
 2508, 1241, 1517, 1242, 1240
 2509, 1922, 2287, 2159, 1831
 2510, 2356,   80,   81,  250
 2511, 1834, 1922, 1831, 2372
 2512, 2373,  380,  393,   70
 2513, 1922, 2372, 1412, 2374
 2514, 2375,  872,  852,  853
 2515, 2030,  240,  253,  239
 2516, 2287, 2372, 2289, 1831
 2517, 1799, 1834, 1922, 1831
 2518, 1900, 2034,  757, 2143
 2519, 2279,  741,  747,  740
 2520, 1205, 1931, 2005, 2048
 2521, 2376,  250, 2034, 2364
 2522, 2342, 1908, 1653, 1686
 2523, 2048, 1204, 2254, 1205
 2524, 2254, 1205, 2157, 2048
 2525, 1261, 2304, 1915, 1554
 2526, 1950, 2243, 2136, 2291
 2527, 2075,  253,  254,  267
 2528, 2046, 1520, 2166, 2047
 2529,  254, 2077, 1253,  268
 2530, 2290, 1443, 1205, 1144
 2531, 2377, 2266,  969,  988
 2532, 1703, 1704, 1705, 1400
 2533, 1755,  912,  892,  893
 2534, 2363,  254,  241,  255
 2535, 2342,  264, 2116,  277
 2536, 1668,  257,  244,  258
 2537, 1253,  267,  254,  268
 2538, 2378, 2061,  536,  531
 2539, 2378, 2379, 2061, 2085
 2540, 2378, 2061,  531, 2380
 2541, 2378, 1550, 2085, 2061
 2542, 2378, 2371, 2381,  530
 2543, 2378, 2381, 1550, 2380
 2544, 1717, 1139, 1251, 1450
 2545, 2077,  269,  268,  255
 2546, 1668,  257,  256,  243
 2547, 2165,  946,  947,  966
 2548, 1450, 2194, 1106, 2070
 2549, 1450, 1779, 2382, 1106
 2550, 1115, 1107, 1059, 1114
 2551, 1105, 1450, 1779, 1717
 2552, 2383, 2276, 2384, 2217
 2553, 2108,  532,  531,  526
 2554, 2385,  931,  951,  950
 2555, 1997, 1441, 1967, 2386
 2556, 2066,  550,  549,  544
 2557, 1591, 1576, 1590, 1935
 2558, 2387,  563,  562,  557
 2559, 1874, 1575, 1747, 1632
 2560, 1836,  525,  519,  520
 2561, 1632, 2388, 1934, 2313
 2562, 2389, 2354, 2390, 2391
 2563, 1632, 1936, 1934, 2388
 2564, 2249,   48,  262,   47
 2565, 1776, 2109, 1617, 2335
 2566, 2250,   46, 2369,  534
 2567, 2392,  930,  931,  950
 2568, 1617, 2393, 1758, 2394
 2569, 2350,  535,  534,  529
 2570, 1617, 1758, 2393, 1706
 2571, 1617, 1685, 2393, 2082
 2572, 2271, 1371, 1162, 1161
 2573, 1617, 1430, 1685, 2082
 2574, 1427, 1617, 2109, 1430
 2575,  264,  251, 2359,  265
 2576, 2272, 2358, 2395, 2364
 2577, 1121, 1451, 1204, 1400
 2578, 2031,  253,  266,  252
 2579, 2376,  750,  756,   79
 2580, 1173, 1304, 1780, 1568
 2581, 1450, 1136, 1112, 1122
 2582, 2194, 1122, 1970, 1136
 2583, 2116,  264,  265,  278
 2584, 1121, 1780, 2194, 1925
 2585, 1925, 2070, 1970, 2023
 2586, 2194, 1925, 2070, 1970
 2587, 1925, 2194, 2070, 1780
 2588, 1419, 1167, 1907, 1967
 2589, 1178, 1786, 1365, 2396
 2590, 1169, 1290, 1178, 1787
 2591, 1174, 1178, 1305, 1568
 2592, 1178, 1568, 1168, 2237
 2593, 1634,  738,   77, 1417
 2594, 1653,  276,  277,  290
 2595, 1178, 1568, 2237, 2251
 2596, 2128,  755,  761,  754
 2597, 1169, 2237, 1788, 1178
 2598, 1809,  896,  895,  876
 2599, 1262, 1614, 1348, 1103
 2600, 2101,  713,  712,  706
 2601, 1922, 1412, 2372, 1420
 2602, 1412, 1612, 1052, 1405
 2603, 1412, 2374, 1613, 2397
 2604, 2040,  837, 2043,  836
 2605, 1420, 2372, 1416, 1412
 2606, 1729,  241,  228,  242
 2607, 1412, 1613, 2374, 1612
 2608, 2064,  241,  254,  240
 2609, 1234, 1382, 1237, 1550
 2610, 1865,  280,  267,  281
 2611, 1795,  231, 1495,  244
 2612, 1795, 1796, 1974,  230
 2613, 1252, 1287, 2363, 1286
 2614, 1667, 1795, 1797, 1796
 2615, 1795,  243, 1797, 1796
 2616, 2325,  853,  834,  854
 2617, 1518,  270,  269,  256
 2618, 1667, 1795, 1495, 1668
 2619, 1178, 1305, 2195, 2396
 2620, 1203, 1268, 1585, 2035
 2621, 2190,  541,  535,  536
 2622, 1174, 1173, 1304, 1401
 2623, 1326,  272,  258,  259
 2624, 1173, 1168, 1568, 1925
 2625, 1171, 1565, 1176, 1960
 2626, 1568, 2200, 2237, 2251
 2627, 2389,  273,  260,  274
 2628, 1568, 1925, 1168, 2200
 2629, 1289, 1109, 1293, 1176
 2630, 1360, 1354, 1165, 1166
 2631, 1842, 1293, 1109, 1441
 2632, 2360,  272,  259,  273
 2633, 1384, 1441, 1385, 1353
 2634, 1456, 2117, 1457, 1432
 2635, 2398,  555,  560,  554
 2636, 1102, 1441, 1385, 1384
 2637, 2399,  558,   50,  552
 2638, 2118, 1670, 2322,  233
 2639, 1702,  334,  321,  335
 2640, 1839, 2025, 1432, 2024
 2641, 1811, 1815, 1814, 1813
 2642, 2353, 2370, 2369,  528
 2643, 1839, 1564, 2277, 1110
 2644, 2399,   49,   50,  288
 2645, 1325, 1518, 2102, 1326
 2646, 1456, 1457, 2117, 1814
 2647, 1517, 2047, 2045, 2166
 2648, 1517, 1516, 1520, 2166
 2649,   85,  185, 1162,  198
 2650,  276, 2395,  263,   79
 2651, 1517, 2004, 2045, 2047
 2652, 1477, 2400, 1479, 1808
 2653, 1114, 1450, 1112, 1122
 2654,   78,  276, 2395, 1634
 2655, 1931, 1451, 1705, 1204
 2656,  264, 2033, 2364, 2342
 2657, 1115, 1118, 1119, 1058
 2658, 1931, 1446, 2060, 1451
 2659, 2116,  277,  264,  278
 2660, 1931, 1115, 1107, 1059
 2661, 1657, 1686, 2150, 1707
 2662, 1931, 1769, 2401, 1444
 2663, 2359, 2337,  251, 2034
 2664, 2379, 1551, 2085, 2190
 2665, 2379, 2402,  542, 2051
 2666,  738, 1720, 1634,  744
 2667, 1589,  745,  739,  746
 2668,  153, 2403, 2404,  677
 2669, 1868,  280,  279,  266
 2670, 2379,  537, 2051,  542
 2671, 2378, 2379, 2085, 2371
 2672, 2379, 2051,  537, 2061
 2673, 2116,  291,  278,  292
 2674, 2378, 2061, 2379,  536
 2675, 1559, 2039, 2281, 2405
 2676, 1078, 1525, 2015, 1524
 2677, 1083, 1155, 1167, 1284
 2678, 1284, 1578, 2406, 1811
 2679, 2407,  282,  281,  268
 2680, 2406, 2408, 1578, 1284
 2681, 2042, 2044, 2043,  836
 2682, 1581, 1687, 2409, 1695
 2683, 1083, 1581, 1284, 1578
 2684, 2151,  292,  306,  305
 2685, 1210, 1687, 1581, 1695
 2686, 2410,  820,  819,  800
 2687, 1728,  227,  241,  240
 2688, 1558,  869,  888,  868
 2689,  284,  297, 2166,  283
 2690, 1275,  855, 2400,  856
 2691, 1135, 1746, 1976, 2164
 2692, 2045,  283,  282,  269
 2693, 1134, 1133, 1132, 1233
 2694, 1862, 2165, 2086, 2008
 2695, 2164, 1976, 1135, 1977
 2696, 2086, 1977, 2164, 1507
 2697, 1977, 2164, 1506, 2009
 2698, 2028, 2320, 2152, 2321
 2699, 2320, 1505,  928, 2028
 2700, 2028, 2351, 2321,  908
 2701, 1479, 1337, 1554, 1338
 2702, 2028,  927, 2411, 2351
 2703, 2403,  678,    7,  153
 2704, 2412, 2413, 2249, 2414
 2705, 2391,  262,  275,  261
 2706, 2413,   48,   49,  275
 2707, 2281, 2282, 2410, 2039
 2708, 2242,  300,  286,  287
 2709, 2415, 2281, 2039, 2040
 2710, 2416,  286,  273,  287
 2711, 2281,  819, 2417,  838
 2712, 2281, 1556, 2043, 1555
 2713, 2281, 1556, 2040, 2043
 2714, 1604, 2418, 1601, 1602
 2715, 1159,  311,  324,  310
 2716, 2211,  173, 2216,  174
 2717, 1601, 1597, 1602, 1876
 2718, 2324, 1601, 1936, 1603
 2719, 2419,  547,  542,  548
 2720, 1601, 2044, 1603, 2324
 2721, 1731,  173,  179,   28
 2722, 1601, 1875, 2418, 2128
 2723, 1601, 2420, 1875, 2128
 2724, 1625, 2033, 1681, 2342
 2725, 1899, 1625, 1600, 2342
 2726, 2421,  315,  302,  316
 2727, 1627, 1625, 1600, 2032
 2728, 1600, 2032, 2422, 1627
 2729, 1417, 1720, 1634,  738
 2730, 1625, 2032, 1605, 1393
 2731, 1657, 1707, 1638, 1686
 2732, 1394, 1625, 1393, 1681
 2733, 2052, 1554, 1915, 1231
 2734, 1625, 1627, 1478, 1605
 2735, 1310, 1976, 1746, 1316
 2736, 2346,  357,  356,  343
 2737, 2423,   74,   75,  328
 2738, 1976, 1249, 1506, 1499
 2739, 2021, 2232, 1963, 1960
 2740, 1867,  279,  293,  292
 2741, 1923, 1721, 2258, 1368
 2742, 1923, 1368, 2099, 1308
 2743, 1867,  280,  293,  279
 2744, 2151, 2150, 1867,  292
 2745, 1174, 1303, 1923, 1308
 2746, 1289, 1582, 1081, 1292
 2747, 1923, 1399, 2366, 1288
 2748, 1923, 1399, 2098, 2366
 2749, 1991, 1923, 1308, 1401
 2750, 1992, 1842, 1997, 1996
 2751, 1991, 1401, 1308, 1826
 2752, 1508, 1752, 1802, 1047
 2753, 2041,  797,  798,  817
 2754, 1749, 1752, 1751, 1294
 2755, 2185,  308,  307,  294
 2756, 2185,  294,  281,  295
 2757, 1737, 1650, 1905, 1753
 2758, 2044,  836,  816,  817
 2759, 2127, 2128, 2420, 2424
 2760, 1933, 1914, 2425, 1260
 2761, 1802, 1753, 1988, 1834
 2762, 1753, 1481, 1751, 1989
 2763, 1753, 1481, 1989, 1905
 2764, 1868,  280,  266,  267
 2765, 2040,  818,  837,  817
 2766, 2231, 2387, 2426, 2173
 2767, 2045,  295,  282,  296
 2768, 1302, 1362, 1363, 1370
 2769, 1047, 1798, 1294, 1295
 2770, 1414, 1834, 1512, 1420
 2771, 1508, 1834, 1802, 1510
 2772, 1948,  301,  287,  288
 2773, 2427,  554,  559,  553
 2774, 1799, 1834, 1831, 1830
 2775, 2403,    7,  678,   67
 2776, 1362, 1828, 1829, 1799
 2777, 2020, 1012, 1981, 1031
 2778, 1752, 1509, 2428, 1798
 2779, 1840, 2429, 2014, 2226
 2780, 1508, 1802, 1752, 1689
 2781, 1508, 1802, 1689, 1510
 2782, 1667, 1494, 1422, 1150
 2783, 2246,  181,   24,  180
 2784, 2430,  702,  703,  709
 2785, 1562, 1619,   16,   17
 2786, 1551, 2000, 2085, 2190
 2787, 2213,   24,   23,  428
 2788, 1494, 1975, 2089, 2305
 2789, 2217,  161,  719,  160
 2790, 1544, 1528, 1526, 1537
 2791, 1544, 1526, 1459, 1537
 2792, 1469, 1312, 2090, 1680
 2793, 2431,  566,  571,  565
 2794, 1421, 1423, 1422, 1464
 2795, 2432,   52,  564,  570
 2796, 1421, 1296, 1297, 1298
 2797, 1311, 1312, 1317, 1309
 2798, 2332, 1828, 1859, 1672
 2799, 2014, 2226,  383,  384
 2800, 1829, 1859, 2332, 1828
 2801, 1829, 2332, 1830, 1831
 2802, 2332, 1674, 2159, 1831
 2803, 1400, 1204, 1704, 1705
 2804, 1513, 1523, 1067, 1076
 2805, 1359,  863,  844,  864
 2806, 1955, 2433,  394,  393
 2807, 1720, 1417, 1638,  738
 2808, 2095, 2076,  368,  369
 2809, 2394,  318, 2434,  317
 2810, 2082,  330,  343,  329
 2811, 1073, 1800, 1067, 1069
 2812, 1406, 1560, 1075, 1561
 2813, 1832, 1825, 2435, 2154
 2814, 1825, 2154, 1832, 1369
 2815, 1825, 1363, 1369, 1069
 2816, 1215, 2436, 1274, 1283
 2817, 2437,  808,  157,  156
 2818, 2438,  709,  716,  715
 2819, 2439, 1231,  876,  857
 2820, 1866, 1868, 1865,  280
 2821, 2150,  304,  291,  305
 2822, 1276, 1738, 2050, 1487
 2823, 1277, 1271, 1763, 1764
 2824, 1043, 2068, 1827, 1826
 2825, 2045,  283,  296,  282
 2826, 2068, 2440, 2441, 1827
 2827, 2068, 1160, 2442, 2443
 2828, 2068, 1160, 1158, 1145
 2829, 2068, 2444, 1738, 1827
 2830, 2068, 2050, 1738, 2442
 2831, 2445, 2410, 2446, 2447
 2832, 1968, 1809, 1119, 1116
 2833, 1445,  319,  306,  320
 2834, 2229,  121,  575,  120
 2835, 1804, 1479, 1555, 1275
 2836, 1058, 1119, 1112, 1805
 2837, 1807, 1119, 1395, 1808
 2838, 1120, 1058, 1396, 1395
 2839, 1702,  335,  321,  322
 2840, 1804, 1807, 1479, 1808
 2841, 2157,  309,  296,  310
 2842, 1136,  914, 1138, 2448
 2843, 1059, 1931, 1769, 2005
 2844, 2377, 2054,  970, 2053
 2845, 2449, 2009,  929,  948
 2846, 2377, 2110,  970, 2054
 2847, 2450, 1765, 2049, 2431
 2848, 2377, 1502, 2266, 2451
 2849, 2452,  313,  314,  327
 2850, 2377, 1663, 1502, 2451
 2851, 1660, 1779, 2056, 1717
 2852, 1990,  322,  323,  336
 2853, 2247,  179,   25,   26
 2854, 1159,  324,  323,  310
 2855, 2453,  558, 2454,  564
 2856, 1449, 1717, 1779, 1660
 2857, 1733, 1975,  230,  217
 2858, 1967, 1353, 1358, 2455
 2859, 2453,   51,  301,   50
 2860, 2456,    4,   27,   26
 2861, 1779, 1781, 2457, 2037
 2862, 2456,   26,   27,  179
 2863, 1105, 1450, 1717, 1251
 2864, 2458,  326,  325,  312
 2865, 1585, 1779, 1108, 1106
 2866, 1450, 2382, 1779, 1139
 2867, 1203, 1121, 1107, 1204
 2868, 1352, 1165, 1359, 1360
 2869, 1354, 1165, 1166, 1361
 2870, 2399, 2413,  288, 1948
 2871, 2170, 2387, 2169, 2349
 2872, 2170, 2169, 2387, 2459
 2873, 2390, 2350,  535,  534
 2874, 2460, 2452,  327,  326
 2875, 2170, 2459, 2426, 2461
 2876, 1921, 1202, 1918, 1919
 2877, 1918, 1921, 1919, 2462
 2878, 2463, 1639, 2421, 2126
 2879, 1715, 1716, 1166, 1198
 2880, 1265, 1259, 1429, 1850
 2881, 1165, 1360, 1166, 1714
 2882, 1707,  305, 2394,  304
 2883, 1346, 1973, 1343, 1820
 2884, 2423, 2463, 2126,  726
 2885, 1921, 1714, 1918, 1202
 2886, 2060,  320,  307,  321
 2887, 1921, 1201, 2296, 2464
 2888, 1921, 1199, 1201, 1360
 2889, 2434,  317,  318,  331
 2890, 2394,  304,  305,  318
 2891, 2150, 1483, 1626, 1758
 2892, 1819, 1972,  705,  704
 2893, 2083,  331,  344,  330
 2894, 1890, 2155, 2076, 2429
 2895, 1334, 1685, 1538, 1706
 2896, 1617, 1758, 1426, 2335
 2897, 1820,  710, 2438,  709
 2898, 1758, 1483, 2465, 2151
 2899, 1758, 1447, 2335, 2465
 2900, 1758, 1706, 1707, 2393
 2901, 1364, 1593, 1594, 1368
 2902, 1080, 1784, 1593, 1694
 2903, 1709,  321,  334,  320
 2904, 1081, 1577, 1593, 1784
 2905, 2254,  309,  322,  308
 2906, 2415,  799,  800,  819
 2907, 1961, 2022, 2059, 1963
 2908, 1718, 1719, 2078, 1700
 2909, 1990,  336,  323,  337
 2910, 1778,  182,  175,  176
 2911, 2184,  562,  568,  567
 2912, 1667, 1797, 1422, 1796
 2913, 2231,  563,  568,  562
 2914, 1143,  298,  311,  297
 2915, 1415, 1966, 1515, 1952
 2916, 1245, 1298, 1142, 1306
 2917, 1148, 1142, 1976, 1425
 2918, 2466,  566,  561,  567
 2919, 2097,  335,  336,  349
 2920, 1746, 1976, 2164, 1853
 2921, 1142, 1976, 1499, 1249
 2922, 1494, 1423, 1150, 1467
 2923, 1310, 1424, 1312, 1469
 2924, 1243, 1252, 1255, 1641
 2925, 1730, 1966, 2467, 1017
 2926, 1306, 1422, 1307, 1252
 2927, 2241,  286,  299,  285
 2928, 1494, 1469, 1467, 2089
 2929, 1431, 1346, 2094, 1458
 2930, 2452,  327,  326,  313
 2931, 2135, 2334, 1161, 1647
 2932, 1143, 1159, 1145, 1144
 2933, 1953,  176,   15,   16
 2934, 1648, 1649, 2273, 2468
 2935, 2428,  995,  975,  976
 2936, 2469,  558,  552,  553
 2937, 1361, 1353, 1165, 1164
 2938, 1648, 1649, 1651,  199
 2939, 1457, 2014, 2095, 2346
 2940, 2432,   51,   52,  314
 2941, 2453, 2470, 2469, 2399
 2942, 2471,  138,   11,  139
 2943, 2472,   53,  327,   52
 2944, 1648, 1646, 1649, 2468
 2945, 1887, 2155, 1927, 1955
 2946, 2274, 2101, 2473,  805
 2947, 2357, 2333,  774, 2135
 2948, 2357, 2135, 1633, 2334
 2949, 2357,  775, 1848, 2135
 2950, 2393,  317, 2434,  330
 2951, 2423,  720,  726,   74
 2952, 2357, 2135,  774,  775
 2953, 2438,  716,  722,  715
 2954, 1120, 1444, 1396, 1769
 2955, 1479, 1808, 2400, 1275
 2956, 2474,   71,   72,  367
 2957, 1554, 1479, 1555, 1807
 2958, 2475,   72,  708,  714
 2959, 1804, 1808, 1479, 1275
 2960, 1604, 1605, 1477, 2405
 2961, 1477, 1808, 1215, 2400
 2962, 2434,  317,  331,  330
 2963, 2417,  820,  839,  819
 2964, 1394, 1625, 1478, 1605
 2965, 2393,  330,  329,  316
 2966, 2438,  709,  710,  716
 2967, 1447, 1120, 1483, 1336
 2968, 1887, 1927, 2160, 1926
 2969, 1394, 1477, 1605, 1478
 2970, 2063,  332, 2335,  319
 2971, 2095, 2429, 1958, 2076
 2972, 2344, 2476, 2343, 2475
 2973, 2081, 2094, 2344, 2345
 2974, 2063,  332,  319,  333
 2975, 2344, 2476, 2124, 2343
 2976, 2344, 1958, 1973, 2477
 2977, 2283, 2295, 2137,  191
 2978, 2471,  138,  139,  636
 2979, 1712,  334,  347,  333
 2980, 2117,  345,  358,  344
 2981, 2478, 2479, 1888, 2006
 2982, 2097,  336,  337,  350
 2983, 2478, 1888, 2479, 2269
 2984, 2478, 2480, 2479,  676
 2985, 2478, 2481, 1888, 1939
 2986, 2258,  349,  362,  348
 2987, 2274,  805, 2473,  806
 2988, 2478, 1888, 2481, 2006
 2989, 2478,  671, 2404,  677
 2990, 2478, 2481,  671,  670
 2991, 2482,  661,  655,  656
 2992, 2049,  560,  565,  559
 2993, 2238, 1191,  660, 1188
 2994, 2453, 2452,  314, 2432
 2995,  660, 1188,  654, 2238
 2996, 1191,  655, 1188, 1192
 2997, 1187, 2482, 1188, 1552
 2998, 1191, 1190, 2238,  660
 2999, 1189, 1986, 1191, 1637
 3000, 1191,  661, 1192, 1637
 3001, 1998, 1845, 1847, 1846
 3002, 1998, 1937, 1846, 1982
 3003, 1998, 1846, 1847, 1982
 3004, 1998, 2483,  698, 1847
 3005, 1434, 1435, 1540,  641
 3006, 2224,  140,  141,  630
 3007, 1779, 1781, 2037, 1585
 3008, 1486,  634, 1455,  635
 3009, 2484, 1675, 2485, 1896
 3010, 2460,  339,  326,  340
 3011, 1486, 1050, 1452, 2486
 3012, 1486,  641, 1434,  640
 3013, 2472, 2487, 2460, 2484
 3014, 1522, 1415, 2131, 1893
 3015, 1055, 1416, 1966, 1051
 3016,  341, 2488, 2489,   73
 3017, 1054, 1410, 1409, 1562
 3018, 1413, 1055, 1416, 1966
 3019, 1051, 1050, 2467, 1966
 3020, 2343,  341,  328,  342
 3021, 2343,  342,  328,  329
 3022, 2476,  714,  708,  715
 3023, 1661, 2057, 2054, 2053
 3024, 1018, 2486, 1966, 1050
 3025, 1522, 1049, 1631, 1453
 3026, 1049, 2486, 1631, 1453
 3027, 1525, 1530, 2015, 1523
 3028, 1076, 1524, 1522, 1523
 3029, 1382, 2208, 1389, 1391
 3030, 2109,  332,  345,  331
 3031, 1068, 1821, 1530, 1513
 3032, 1973,  703, 2483,  704
 3033, 1302, 1070, 1369, 1363
 3034, 1587, 1448, 1950, 1790
 3035, 1760, 1691, 1406, 1404
 3036, 1904, 1737, 1905, 1734
 3037, 1904, 1830, 2288, 1650
 3038, 2083,  344,  343,  330
 3039, 2490, 2491, 1397, 2492
 3040, 1904, 1734,  584, 1897
 3041, 1904,  590, 2288, 2292
 3042, 2236,  880,  860,  861
 3043, 1904, 2292,  584,  590
 3044, 1666, 1663, 1781, 1944
 3045,  585,  584, 1650, 1905
 3046, 2427, 2469,  559, 2454
 3047, 2332, 1672, 1674, 1828
 3048, 1710,  335,  348,  334
 3049, 2493,  960,  940,  941
 3050, 1984,  177,   17,  178
 3051, 2274, 2383, 2101,  805
 3052, 2258,  349,  350,  363
 3053, 2067, 1750, 1892,  993
 3054, 2161,  175,   14,   15
 3055, 1859, 2494, 2240, 1672
 3056, 1859, 1370, 1301, 2495
 3057, 2444, 1859, 1827, 2441
 3058, 2216,  174,   13,   14
 3059, 2022,  877,  897,  896
 3060, 2496, 2131,  959,  960
 3061, 1721,  360,  347,  361
 3062, 1859, 2240, 2441, 2444
 3063, 2484,  353,  352,  339
 3064, 2257,  376,  375,  362
 3065, 1859, 2441, 2495, 1827
 3066, 2485,   54,  340,   53
 3067, 1362, 1363, 1370, 1828
 3068, 1829, 2332, 1895, 1830
 3069, 1294, 2428, 1995,  994
 3070, 2485,   54,  576,  582
 3071, 1294, 2067, 1995, 1750
 3072, 1480, 1294, 1750, 2067
 3073, 1988,  586,  591,  585
 3074, 2470,  300, 1948,  301
 3075, 2240,  365,  364,  351
 3076, 1787,  938,  919,  939
 3077, 1799, 1830, 1753, 1834
 3078, 1294, 2497, 1042, 1041
 3079, 1294, 2428, 2497, 1798
 3080, 2485,  576, 1896,  582
 3081, 1749, 1752, 1802, 1751
 3082, 1749, 1482, 1751, 1481
 3083, 1945, 2470, 1791, 1951
 3084, 1945, 1791, 1587, 1790
 3085, 1896,  582,  577,  583
 3086, 1791, 1145, 2458, 2050
 3087, 2475,   72,   73,  354
 3088, 1791, 2050, 2454, 2049
 3089, 2345,  356,  342,  343
 3090, 1285, 1252, 1641, 1286
 3091, 1148, 1150, 1423, 1467
 3092, 2475,  341, 2343,  354
 3093, 1955, 1889, 2001, 1954
 3094, 2344, 2476, 2475, 2430
 3095, 1459, 1583, 2498, 2029
 3096, 1927,  407,  394,  408
 3097, 1756, 1299, 2029, 1583
 3098, 1421, 1297, 1296, 1462
 3099, 2026, 2089, 2137, 1469
 3100, 2014,  371,  370,  357
 3101, 2438,  722,  721,  715
 3102, 2483,  703,  697,  704
 3103, 1344, 2499, 2473,  707
 3104, 1285, 1287, 1422, 1252
 3105, 2345,  355,  342,  356
 3106, 2346,  357,  343,  344
 3107,  371, 2117,  358,  357
 3108, 1422, 1797, 1307, 1252
 3109, 1311, 1465, 1976, 1316
 3110, 2383,  719, 2101,  713
 3111, 1299, 1279, 1756, 2029
 3112, 2402, 2500,  548, 2016
 3113, 2402, 2016, 1903, 2500
 3114, 2228,  360,  346,  347
 3115, 2402, 2016,  543, 2051
 3116, 1212,   19,   18,    2
 3117, 2379,  542, 2402, 2190
 3118, 2501,  823,  822,  803
 3119, 2379, 1551, 2402, 2051
 3120, 1123, 1125, 2087, 1126
 3121, 1309, 1316, 1125, 1315
 3122, 2002,    3,  184,   20
 3123, 1903, 2103, 1551, 2419
 3124, 2402, 1551, 1903, 2016
 3125, 1903, 2500, 2016, 2502
 3126, 2022,  897,  877,  878
 3127, 1812,  372,  359,  373
 3128, 1531,  740,  734,  741
 3129, 1898, 1498, 1099, 1903
 3130, 1879, 1742, 1881, 1941
 3131, 2494,  364,  350,  351
 3132, 1096, 1946, 1950, 2104
 3133, 1113, 1060, 1805, 1250
 3134, 1964,  610, 1056,  609
 3135, 1468, 1742, 1467, 2089
 3136, 2483,  698, 1972,  704
 3137, 1466, 1742, 1233, 1467
 3138, 1742, 2318, 2305, 1941
 3139, 2068, 2444, 2441, 2443
 3140, 1807, 1395, 1119, 1118
 3141, 1859, 1827, 2495, 1301
 3142,   85,  198, 1162,   84
 3143, 1859, 1917, 1828, 2256
 3144, 1931, 1204, 1705, 2048
 3145, 1676,  366,   55,   56
 3146, 1859, 2441, 2494, 2495
 3147, 1895, 2444, 1859, 1827
 3148, 1123, 1128, 1127, 1313
 3149, 1677,   54,   55,  353
 3150, 1123, 1129, 1128, 1906
 3151, 1743, 1127, 1880, 1870
 3152, 2442,  326,  339,  325
 3153,   85,   84, 1162,  786
 3154, 1128, 1863,  489, 1906
 3155, 2125,  173,    1,   13
 3156, 1676, 2503,  594,  588
 3157, 1056, 2504,  616, 1636
 3158,  487,  488, 1880, 1609
 3159,  482, 1127,  476, 1870
 3160, 1870,  482, 1880,  481
 3161, 1468, 2090, 1870, 2088
 3162, 1870, 2090, 2505, 2088
 3163, 2474,  702,  708,   71
 3164, 1870,  475, 2088, 2505
 3165, 1870,  481, 2088,  475
 3166, 1526, 1567, 1534, 1652
 3167, 1526, 2314, 1652, 1535
 3168, 1436, 1461, 1526, 1567
 3169,   79,   78,  276, 2395
 3170, 1704, 1144, 1159, 1204
 3171, 1203, 1144, 1400, 1204
 3172, 2373,  393, 2433, 1954
 3173, 1653,  289,  276,  290
 3174, 1312, 1588,  470, 2319
 3175, 1312, 1680, 2319, 2090
 3176, 1421, 1425, 1311, 1298
 3177, 1440, 2182, 1490, 2183
 3178, 1820,  710,  709,  703
 3179, 2272, 1720, 2342, 1589
 3180, 2430,  702,  709,  708
 3181, 2506,  707,  700,  701
 3182, 2480,  420,  421,   64
 3183, 2194, 1450, 1121, 1122
 3184, 2474,  354, 2477,  367
 3185, 1359,  845,  864,  844
 3186, 1438, 2027, 1491, 1679
 3187, 2270, 2507,  826,  807
 3188, 1549,  458, 1679, 1491
 3189, 1588, 1549,  458, 1679
 3190, 1489,  459, 1491,  453
 3191, 2226,  396,  383,  397
 3192, 1491, 1549,  458,  459
 3193, 1575, 1573, 1597, 1872
 3194, 1719,  362,  375,  361
 3195, 1143, 1159,  310,  311
 3196, 1702, 1704,  322, 2254
 3197, 1699,  399,  386,  400
 3198, 1872, 1573, 1597, 1878
 3199, 2224,  630,  141,  624
 3200, 1759,  416,  417,  430
 3201, 1597, 1872, 1878, 1876
 3202, 2508,  613,  612,  607
 3203, 1440, 1439, 1656, 2027
 3204, 1656, 2183, 2027, 2509
 3205,  387, 1719,  388,  374
 3206, 2510, 2511, 2512, 2513
 3207, 1321, 1438, 1440, 1437
 3208, 2154,  376,  389,  375
 3209,  348, 2099,  349, 2097
 3210, 2503,  600,  594,  595
 3211, 2514,   56,   57,  379
 3212, 2079,  401,  388,  402
 3213, 1656, 1649, 1646, 2468
 3214, 1323, 1635, 1440, 1646
 3215, 1656, 1646, 2182, 2468
 3216, 2219,  606,   59,   58
 3217, 1801,  417,  431,  430
 3218, 1319, 1330, 1322, 1592
 3219, 1328, 2223, 1741, 1592
 3220, 2503, 2159, 2397,  595
 3221, 1979, 1567, 1328, 1436
 3222, 2215, 2515, 2486, 1000
 3223, 1461, 1871, 1297, 1459
 3224, 1436, 1461, 1549, 1526
 3225, 1792,  390,  391,  404
 3226, 2216,   14, 1454, 1690
 3227, 1678,  378,  379,  392
 3228, 1438, 1439, 1463, 1462
 3229, 1463, 1439, 1726, 1462
 3230,  617,  128, 1636, 1433
 3231, 1645, 1323, 1656, 1646
 3232, 1725, 1732, 1439, 1658
 3233, 1374, 1439, 1732, 1659
 3234, 1676,  379,  366,   56
 3235, 1256, 1260, 1257, 1914
 3236, 1439, 2027, 2285, 1655
 3237, 2516, 2247, 2211, 1801
 3238, 2516, 2211, 2247, 2456
 3239, 2516, 1692,  619,  613
 3240, 1511, 1821, 1822, 2268
 3241, 2516, 1691, 2211, 1692
 3242, 2516, 2211, 2456, 1731
 3243, 2516, 1731,  619, 1692
 3244, 1922, 2287, 2374, 2397
 3245, 1055, 1412, 1416, 1965
 3246, 1416, 1074, 1412, 1055
 3247, 1414, 1415, 1413, 1515
 3248, 1416, 1051, 2467, 1966
 3249, 2372, 1416, 1412, 1965
 3250, 1845, 2483, 1973, 1958
 3251, 1416, 1420, 2207, 2372
 3252, 2393,  317,  303,  304
 3253, 1416, 2467, 1051, 1615
 3254, 1954,  697, 2517,  696
 3255, 1416, 2207, 1730, 1615
 3256, 2167, 1169, 2237, 1788
 3257, 2518, 2062, 2248, 1861
 3258, 1861, 2248, 2519, 2265
 3259, 2017, 2265, 1861, 2252
 3260, 1228, 1507, 1862, 1860
 3261, 1937,  692,  691,  685
 3262, 1623,  864,  884,  883
 3263, 2017, 1606, 2520, 2008
 3264, 1812,  386,  372,  373
 3265, 1812,  385,  372,  386
 3266, 1228, 1606, 1862, 1507
 3267, 1859, 2494, 2441, 2240
 3268, 2494,  351, 2240,  364
 3269, 2494, 1917, 2256,  363
 3270, 2441,  351, 2494,  350
 3271, 2494,  363, 2495,  350
 3272, 1986,  666,  660,  661
 3273, 1954, 1889, 2001, 1998
 3274, 1998, 1845, 2001, 2483
 3275, 2406,  398,  385,  399
 3276, 1206, 1214, 1212, 1984
 3277, 2079,  387,  388,  401
 3278, 1862, 2017, 2008, 1606
 3279, 1998, 1889, 1846, 1937
 3280, 1621,  903,  922,  902
 3281, 1621,  903,  883,  884
 3282, 1509,  996, 1689,  995
 3283, 2435,  389,  376,  390
 3284, 1418, 1419, 1403, 1353
 3285, 1578, 2521, 1812, 2225
 3286, 1406, 1793, 2212, 2508
 3287, 1456, 1432, 1839, 2117
 3288, 1839, 1814, 2117, 1782
 3289, 2025, 1430, 2117, 1432
 3290, 1515, 2131,  979,  978
 3291, 1430, 2117, 1432, 1457
 3292, 1457, 2095, 1840, 1458
 3293, 1457, 2094, 2346, 2095
 3294, 1824,  402,  389,  403
 3295, 1457, 1430, 2346, 2094
 3296, 2503,  595,  601,  600
 3297, 1884, 2429, 1840, 2226
 3298, 1153, 1166, 1361, 1885
 3299, 1884, 1890, 1715, 1163
 3300, 1884, 1163, 1840, 2429
 3301, 1215, 2400, 1808, 1275
 3302, 2212,  391,  392,  405
 3303, 1244, 1065, 1246, 1215
 3304, 2292,  589,  584,  590
 3305, 1244, 1215, 1218, 1216
 3306, 1215, 1246, 1218, 1217
 3307, 1215, 2436, 1246, 1217
 3308, 1595, 1393, 1477, 1605
 3309, 1477, 2522, 1216, 2042
 3310, 1503, 1662, 2053, 2449
 3311, 2017, 1500, 2266, 1502
 3312, 1517, 1095, 1240, 1520
 3313, 1839, 1432, 1110, 2024
 3314, 1954,  691,  697,  690
 3315, 1503, 2053, 1662, 1502
 3316, 1098, 1503, 1662, 1502
 3317, 1616,  393,   69,  690
 3318, 1141, 1723, 1151, 1131
 3319, 1927,  394,  395,  408
 3320, 1241, 1062, 1060, 1254
 3321, 2523, 2524,  867, 2525
 3322, 2263, 2526,  681,  150
 3323, 2167,  898, 1963,  899
 3324, 1241, 1240, 1956, 1517
 3325, 2155,  395,  394,  381
 3326, 2226,  397,  383,  384
 3327, 1149, 1667, 1150, 1495
 3328, 1667, 1151, 1150, 1307
 3329, 2310,  385,  398,  384
 3330, 1151, 2102, 1307, 1797
 3331, 1298, 1279, 1504, 1299
 3332, 1151, 1307, 2102, 1723
 3333, 2282, 2280, 2446, 2039
 3334, 1926,  409,  395,  396
 3335, 2496, 2131, 2130,  959
 3336, 1993, 1224, 2015, 2527
 3337, 2228, 1722, 1812,  360
 3338, 2282, 2410, 2039, 2446
 3339, 2528,  398,  412,  411
 3340, 1559, 1627, 2280, 2039
 3341, 1263, 1543, 1266, 1557
 3342, 2513,   62,   63,  422
 3343, 1559, 1543, 2282, 2280
 3344, 2282, 1266, 1543, 1557
 3345, 1543,  735, 2280, 1531
 3346, 1543, 2280,  735, 1541
 3347, 2079,  388,  389,  402
 3348, 1961, 1768, 1960, 1928
 3349, 2529, 1473, 1471, 1913
 3350, 1102, 1101, 1170, 1293
 3351, 1836, 2108, 2530, 1473
 3352, 2516, 2531,  612,  618
 3353, 1474, 1236, 1909, 1472
 3354, 1473, 1471, 1472, 1836
 3355, 1238, 1472, 1473, 1471
 3356, 1907, 1225, 2178, 1280
 3357, 2514,  594,   57,   56
 3358, 2532, 2496, 1822, 2130
 3359, 1698,  400,  414,  413
 3360, 2112,  499, 1610, 2058
 3361, 1701,  415,  414,  401
 3362, 2331, 2112,  499, 1610
 3363, 1609,  494, 2058,  493
 3364, 1406, 2533, 1613, 2508
 3365, 1351, 1359, 2534, 1356
 3366, 1771,  416,  415,  402
 3367, 2235,  175, 2161, 1778
 3368, 2218,   58,  392,   57
 3369, 1677, 2485, 1675, 1896
 3370, 1936, 1603, 1935, 2324
 3371, 1576, 1575, 1597, 1874
 3372, 2508,  607,  612,  606
 3373, 1936, 2388, 2420, 2107
 3374, 1597, 1872, 1874, 1575
 3375, 1421, 1464, 1424, 1423
 3376, 1732, 1380, 1297, 1379
 3377, 1438, 1440, 1491, 2027
 3378, 1725, 1732, 1727, 1462
 3379, 1725, 1439, 1462, 1726
 3380, 2072, 1732, 1375, 1727
 3381, 1732, 1658, 1727, 2072
 3382, 2533,  601, 1613,  607
 3383, 2487,  576,  570,  571
 3384, 1323, 1374, 1659, 1439
 3385, 1380, 1375, 1732, 1727
 3386, 1882, 2535, 2264, 1943
 3387, 2536, 2537,  646, 2162
 3388, 2261,  665,  151,  671
 3389, 2262, 1882, 2535, 2264
 3390, 1198, 2538, 1882, 1857
 3391, 1943, 1883, 1882, 2535
 3392, 1943, 1200, 2535, 2539
 3393, 1616,  684,  690,   68
 3394, 1943, 2539, 2264,  658
 3395, 2540,  419, 2403, 2541
 3396, 2540,  684,  678,  685
 3397, 2232, 1170, 1960, 1168
 3398, 2232, 1169, 2237, 2167
 3399, 1959, 1170, 2233, 1102
 3400, 1101, 1170, 1960, 1102
 3401, 1961, 1960, 1103, 1928
 3402, 1321, 1323, 1635, 1440
 3403,  764, 2542,  771, 1872
 3404, 1624, 1849, 1346, 1856
 3405, 2543,  409,  422,  408
 3406, 2544,  410,  396,  397
 3407, 2545,  425,  411,  412
 3408, 1849, 1685, 2343, 2438
 3409, 1872, 1876, 1873,  765
 3410, 1872,  764, 1878,  765
 3411, 1872,  771, 1874, 2542
 3412, 2168, 1386, 1916, 1962
 3413, 2546,  424,   61,  423
 3414, 2168, 2158, 1349, 2547
 3415, 2168, 1386, 2236,  861
 3416, 2168,  861, 2547, 1386
 3417, 2548, 2549, 2545, 2550
 3418, 2551, 2552, 2545,  425
 3419, 2551, 2528, 1698,  413
 3420, 2528,  399,  412,  398
 3421, 2551,  412, 2528,  413
 3422, 2002, 2552,    3,   20
 3423, 1614, 1916, 2168, 1386
 3424, 2528,  413,  399,  400
 3425, 2528,  413,  412,  399
 3426, 1562, 1409, 1953, 1619
 3427, 2551,  425,  412,  426
 3428, 2168,  841, 1442, 2158
 3429, 1698,  414,  400,  401
 3430, 1103, 1262, 1614, 1916
 3431, 1054, 1953, 1562, 1409
 3432, 2553,  426,  413,  427
 3433, 1630, 1453, 1562, 1522
 3434, 1701,  415,  401,  402
 3435, 2118, 1670,  233,  246
 3436, 1759,  430,  429,  416
 3437, 1771,  403,  416,  402
 3438, 1773,  427,  414,  428
 3439, 2118,  233, 2322,  234
 3440, 2118, 2352, 2554, 1357
 3441, 2118, 2554, 2000, 1357
 3442, 2246, 1778, 2213,  181
 3443, 2118, 2000, 2208, 1357
 3444, 2118, 2322, 1670, 2208
 3445, 2091,  964,  963,  944
 3446, 1597, 1874, 1872, 1873
 3447, 1810, 2533, 2397, 1613
 3448, 1793,  405,  418,  404
 3449, 2246,  430,   25,  429
 3450, 2531,  431,  418,   60
 3451, 2218, 2533,  606,  600
 3452, 2219,   59, 2531,  418
 3453, 2555, 2197, 2091,  945
 3454, 1575, 1745, 1574, 2542
 3455, 1320, 1745, 1575, 1330
 3456, 1126,  484,  490,  483
 3457, 1373, 1575, 1574, 1573
 3458, 2141,  831,  850,  830
 3459, 1372, 1378, 1328, 1592
 3460, 1872, 2143, 2542, 1573
 3461, 1747, 1741, 2312, 1748
 3462, 1810, 2212, 1678, 2533
 3463,  406, 2156, 2269,  407
 3464, 1591,  814, 1940, 2556
 3465, 1373, 1377, 1576, 1572
 3466, 2403,   66,   67,  419
 3467, 1280, 1714, 1155, 1182
 3468, 1152, 1154, 2227, 1284
 3469, 2540, 2403,  419, 2557
 3470, 1181, 1189, 1282, 1581
 3471, 1157, 1579, 1167, 1907
 3472, 1152, 1284, 2227, 2310
 3473, 1210, 1211, 1208, 1078
 3474, 2510, 2513,  673,  674
 3475, 1353, 1419, 1967, 1164
 3476, 1997, 1225, 1622, 2178
 3477, 1155, 1281, 1154, 1284
 3478, 1083, 1155, 1579, 1167
 3479, 2403,   67,   66,    7
 3480, 1320, 1319, 1324, 1331
 3481, 2510,  667,  668,  673
 3482, 2558,  421,  422,   63
 3483, 2548, 1682, 2549, 1986
 3484, 2559,  442,  448,  441
 3485, 1820,  703, 1973,  704
 3486, 2223, 2312, 2560, 1741
 3487, 2223, 1741, 1748, 2312
 3488, 2223, 1592, 2556, 1748
 3489, 2186, 2223, 2312, 2560
 3490, 2223, 2187, 2221, 2140
 3491, 1212, 2550,  666, 1986
 3492, 2478, 2540, 2557, 2404
 3493, 2545,  425,  424,  411
 3494, 2549, 2546, 2552,  672
 3495, 1888, 2540, 2557, 2478
 3496, 2549,  667,  673,  672
 3497, 2002, 2253,   20,  184
 3498, 1857, 2538, 1882, 2006
 3499, 2551,  412,  413,  426
 3500, 1889, 1882, 1937, 1939
 3501, 1207, 1984, 1212, 2253
 3502, 1889, 1939, 1888, 1882
 3503, 2214, 2002,   21,  184
 3504, 2478, 2006,  670, 2479
 3505, 2214,   21,  426,   22
 3506, 2234, 2213, 1778,  182
 3507, 2214, 1773, 2222, 2205
 3508, 1701, 1697,  402,  401
 3509, 1888, 1882, 2481, 2006
 3510, 1773,  414,  415,  428
 3511, 2540, 1938, 1939, 1888
 3512, 1888, 1927, 1886, 2269
 3513, 2205,  427,  428,   23
 3514, 1243, 1642, 1641, 1644
 3515, 1772,  416,  429,  415
 3516, 2213,  181, 1778,  182
 3517, 2213,  428,  429,   24
 3518, 2235, 1778, 2246,  181
 3519, 1643, 1576, 1218, 1377
 3520, 1760, 1771, 1824,  403
 3521, 1065, 1805, 1060, 1250
 3522, 1245, 1065, 1060, 1278
 3523, 2375, 1246, 2561, 2029
 3524, 1165, 1359, 1360, 2562
 3525, 1642, 1246, 2029, 1218
 3526, 1215, 1246, 1283, 1278
 3527, 2211,  180, 2247,  179
 3528, 2456,   26, 2247,  431
 3529, 2456,  179, 2247,   26
 3530, 1246, 1283, 1279, 1757
 3531, 2279, 1599,  740,  746
 3532, 2531,   60,   59,  612
 3533, 2279, 1627, 2422, 2418
 3534, 2456,   60,    4,  431
 3535, 1532, 1599, 2279, 1600
 3536, 2279, 2422, 1627, 1600
 3537, 2279,  746, 2422, 1599
 3538, 2280, 2418, 2039, 1627
 3539, 2279,  740, 1599,  741
 3540, 2323, 1935, 1940, 1590
 3541, 1532, 1600, 2279, 1627
 3542, 2280, 1543, 2279, 1627
 3543, 1571, 1659, 2315, 1574
 3544, 2315, 2334, 1633, 2284
 3545, 2315, 1633, 1659, 2284
 3546, 2315, 1573, 2143, 2073
 3547, 1429, 1685, 1849, 2148
 3548, 1849, 2124, 2343, 2081
 3549, 2287, 2374, 2397,  602
 3550, 1922, 2374, 2287, 2372
 3551, 1825, 1521, 1069, 1561
 3552, 1921, 1918, 1714, 1360
 3553, 2546,  673, 2513,   62
 3554, 1857, 1887, 1886, 1888
 3555, 2480,  420,   64,   65
 3556,  597,  596, 2372, 2289
 3557, 2287, 2397,  596,  602
 3558, 2287, 2288,  596, 2159
 3559, 2287, 2288, 1831, 2289
 3560, 1203, 1144, 1924, 1400
 3561, 1400, 1144, 1704, 1204
 3562, 2552,  424,    3,   61
 3563, 1907, 1280, 2178, 2562
 3564, 2558,   64,  421,   63
 3565, 1144, 1924, 1990, 1158
 3566, 1144, 1443, 1205, 1203
 3567, 1205, 1144, 1204, 2290
 3568, 2552,   20,  672,    3
 3569, 1048, 1052, 2504, 1455
 3570, 1055, 1052, 1412, 1612
 3571, 1048, 1055, 1049, 1051
 3572, 1411, 1690, 1054, 1409
 3573, 1296, 1311, 1544, 1459
 3574, 1463, 2285, 2027, 2286
 3575, 2563,  441,  440,  434
 3576, 2084, 2333,  211,  224
 3577, 1463, 1680, 2286, 2027
 3578, 1438, 2027, 1463, 1439
 3579, 2373,   70,  696,  702
 3580, 1186,   86,  432,    5
 3581, 1463, 2193, 1680, 2294
 3582, 1431, 1430, 1457, 2094
 3583, 1334, 1617, 1706, 1758
 3584, 1186,  432, 1371,   29
 3585, 2564,   88,   87,  787
 3586, 1186,   86,   85,  786
 3587, 1649,  186,  200,  199
 3588, 1648, 1651, 2334, 2174
 3589, 1429, 2148, 1538, 1685
 3590, 1427, 1431, 1430, 1432
 3591, 2081, 1430, 2082, 1685
 3592, 2565,   87,   86,  786
 3593, 2275, 2566, 2564, 2567
 3594, 2563,  435,  441,  434
 3595, 1427, 2025, 1430, 2109
 3596, 1428, 1607, 1333, 1262
 3597, 1617, 1430, 2082, 2434
 3598, 1161, 1186,  786, 2565
 3599, 2275, 2566,  433, 2564
 3600,  211, 2175,  225,  212
 3601, 2568,  445,  439,  446
 3602, 1820, 2239, 1343, 1346
 3603, 1850, 2149, 1429, 1849
 3604, 1162,  780,  786,   84
 3605, 1849, 2148, 2438, 2149
 3606, 1345, 1856, 1346, 1343
 3607, 1658, 1655, 2285,  214
 3608, 1418, 1104, 1347, 1403
 3609, 2373,   71,   70,  702
 3610, 1418, 1353, 1342, 1164
 3611, 1345, 1348, 1624, 1856
 3612, 1346, 1164, 1957, 1458
 3613, 2569,  434,   88,  435
 3614, 1262, 1348, 1614, 1442
 3615, 1431, 1849, 1429, 1685
 3616, 1624, 1850, 1849, 1856
 3617, 2237,  917, 2167,  918
 3618, 2237, 2167,  917, 2200
 3619, 2138,  436,   90,  437
 3620, 1178, 2237, 1168, 1169
 3621, 2232, 1168, 2237, 1169
 3622, 2232, 2237, 2200, 2167
 3623, 1780, 2035, 2570, 2195
 3624, 1788, 2167,  918, 2237
 3625, 2170, 2169, 1498, 2349
 3626, 1903, 1498, 1794, 2502
 3627, 2398, 1794, 2169, 2502
 3628, 1794, 2169, 2502, 1498
 3629, 2571,  435,   89,  436
 3630, 1498, 2349, 2169, 2502
 3631, 1663, 1098, 1498, 1497
 3632, 2170, 1498, 2169, 1663
 3633, 1501, 1663, 1098, 1498
 3634, 1665, 1498, 2169, 1794
 3635, 2223, 2186, 1748, 2556
 3636, 1497, 1449, 1666, 1660
 3637, 1382, 2120, 2208, 1391
 3638, 1913, 1550, 2381, 2380
 3639, 1473, 1864, 1550, 2380
 3640, 1473, 1913, 2380, 1550
 3641, 2026,  204,  218,  217
 3642, 1232, 1942, 1390, 1879
 3643, 1450, 1122, 2194, 1136
 3644, 1107, 1205, 1931, 2005
 3645, 2572, 2341, 2191, 2559
 3646, 1767, 2075, 2030, 2064
 3647, 1139, 1450, 2070, 1136
 3648, 1119, 1112, 1805, 1971
 3649, 1968, 1116, 1969, 1809
 3650, 2198,   93,  443,  437
 3651, 1137, 1139, 1136, 1251
 3652, 2073, 1573, 2143, 2034
 3653, 1137, 1717, 1139, 1251
 3654, 1107, 1205, 2005, 2047
 3655, 2046, 1205, 2048, 2157
 3656, 1113, 1247, 1112, 1251
 3657, 1149, 1667, 1151, 1150
 3658, 1140, 1089, 1367, 1094
 3659, 2573,   94,   95,  449
 3660, 1131, 1151, 1141, 1307
 3661, 2187,  851,  850,  831
 3662, 1667, 1151, 1307, 1797
 3663, 1492, 1496, 1149, 1495
 3664, 2140, 2336,  792, 2198
 3665, 1492, 1494, 2305, 1495
 3666, 1492, 1494, 1150, 1467
 3667, 1423, 1422, 1464, 1975
 3668, 1492, 1150, 1132, 1467
 3669, 1186,  432, 2275, 1371
 3670, 2273,  444,   31,   30
 3671, 1161, 2275, 1186, 2565
 3672, 2468,  438,  439,  445
 3673, 2569,  435,   88,   89
 3674, 1492, 1742, 1467, 1233
 3675, 1086, 1130, 1133, 1132
 3676, 2164, 1135, 1507, 1977
 3677, 2566,  433,  434,  440
 3678, 2574,  784,  790,  783
 3679, 1977, 1506, 1249, 2449
 3680, 2575,  442, 2576, 2559
 3681, 1506, 1976, 2164, 1977
 3682, 1714, 2562, 1360, 1918
 3683, 2566,  439,  433,  440
 3684, 1651,  200,  213,  199
 3685, 2312,  784,  778,  785
 3686, 1977, 2449, 1606, 2008
 3687, 2293,  190,  189,   33
 3688, 1862, 1606, 2086, 1507
 3689, 1647, 1161, 2567, 2275
 3690, 1665, 2169, 1498, 1663
 3691, 2577,  237,  762, 2355
 3692, 1272, 1791, 1794, 1765
 3693, 1954, 2373,  393,  696
 3694, 1794, 2578, 1765, 2049
 3695, 1794, 2466, 2578, 2398
 3696,  381,  380, 2433,  367
 3697, 2579,  455,  448,  449
 3698, 1794, 1765, 2466, 1764
 3699, 1945, 1949, 1794, 2427
 3700, 1076, 1072, 1513, 1415
 3701, 1208, 1207, 1696, 1209
 3702, 2576,  449,  442,  443
 3703, 2273,   30,  187,  186
 3704, 1648, 2273, 1371, 2468
 3705, 2278,  188,   31,   32
 3706, 1922, 1674, 1831, 2159
 3707, 1508, 1752, 1511, 1509
 3708, 2295,   36,   35,  474
 3709, 1514, 1414, 1511, 1509
 3710, 2341,  440,  447,  446
 3711, 2193,  203,  202,  189
 3712, 1420, 1799, 1922, 1071
 3713, 2293,   34,   33,  462
 3714, 2569,  788,   89,   88
 3715, 1161, 2567, 2565,  787
 3716, 1978,  453,  447,  454
 3717, 1414, 1513, 1415, 1514
 3718, 2181,  450,  444,  451
 3719, 2580,   93,   94,  443
 3720, 2581, 1250, 1248, 1247
 3721, 2055, 2385, 1366, 2581
 3722, 1729, 1287, 1286,  242
 3723, 2055, 1717, 1137, 1251
 3724, 1241, 1062, 1724, 1956
 3725, 2388, 1873,  766, 1874
 3726, 1459, 1584, 2498, 1583
 3727, 1241, 1240, 1059, 1956
 3728, 1250, 2581, 1806, 1247
 3729, 1584, 1536, 1534,  870
 3730, 2186,  813, 2187,  812
 3731, 2188, 2582,  478,  479
 3732, 1803, 1250, 2581, 1806
 3733, 1247, 1112, 1251, 2448
 3734, 1112, 1805, 1971, 2448
 3735, 1251, 2448, 1137, 1247
 3736, 1247, 1806, 1805, 2448
 3737, 1643, 1644, 1061, 1767
 3738, 2575, 2138,  437,  436
 3739, 1848, 2542,  770,  769
 3740, 2144, 2286,  188,  189
 3741, 1215, 1217, 1216, 2522
 3742, 2341, 2563,  441,  440
 3743, 2188, 2583, 2582,  479
 3744, 1216, 1218, 2325, 1217
 3745, 2182,  445,  446,  452
 3746, 2509,  451,  457,  450
 3747, 2569, 2574, 2571,  789
 3748, 1491,  452,  453,  459
 3749, 2283, 2293, 2297,  462
 3750, 2584,  456,  457,  463
 3751, 1101, 1565, 1607, 1960
 3752, 1489, 1437, 1491, 1549
 3753, 1058, 1808, 1065, 1064
 3754, 1246, 2561, 2029, 1218
 3755,  219, 1941,  206, 2305
 3756, 1595, 1477, 1244, 1216
 3757, 1477, 1605, 1478, 2405
 3758, 2183,  458,  457,  451
 3759, 1216, 2325, 1218, 1603
 3760,  141, 2259,    2,  654
 3761,    2, 1190, 2238, 2259
 3762, 1536,  869,  889,  888
 3763, 2140,  811,  831,  830
 3764, 2585,  455,   96,  461
 3765, 1206, 1211, 1213, 1214
 3766, 1581, 2548, 2408, 1687
 3767, 1611,  486, 2300,  487
 3768, 1223, 1179, 1180, 1181
 3769, 1548,  466,  465,  459
 3770, 1203, 1205, 1204, 1107
 3771, 1314,  470, 1588,  471
 3772,  660, 1212, 1986, 1190
 3773, 2238,    2,  654,  660
 3774, 2259, 1190, 1220, 1214
 3775, 1135, 2164, 1507, 1227
 3776, 2164, 1976, 1506, 2320
 3777, 1131, 1132, 1086, 1147
 3778, 2144, 2278,  450,   32
 3779, 1149, 1147, 1668, 2586
 3780, 1489, 1549,  459, 1548
 3781, 1492, 1742, 2305, 1467
 3782, 2584,  462,  456,  463
 3783,  764, 2143, 2542, 1872
 3784, 1439, 1658, 2285, 1726
 3785, 1061, 1644, 1255, 1767
 3786, 1492, 1149, 1150, 1495
 3787, 1131, 1151, 1307, 1150
 3788, 1451, 1400, 1398, 1705
 3789, 1108, 1449, 1267, 1448
 3790, 1526, 1529, 2314, 1527
 3791, 1768, 1569, 1116, 1122
 3792, 2579,  455,  461,  454
 3793, 1059, 1114, 1107, 1240
 3794, 1048, 1453, 1053, 1452
 3795, 2587, 1652, 1535, 1534
 3796, 1048, 1055, 1453, 1049
 3797, 2283,  468,   35,   34
 3798, 2585,   96,  455,   95
 3799, 1048, 1056, 1050, 2504
 3800, 1414, 1416, 1512, 1413
 3801, 1980, 2587, 1534, 1567
 3802, 1588,  471,  464,  465
 3803, 1527,  467,  473,  466
 3804, 1416, 1615, 1730, 2467
 3805, 1051, 1636, 1964, 1615
 3806, 1051, 1050, 1056, 1636
 3807, 2150, 1483, 1867, 1626
 3808, 1681, 1868, 2116, 2031
 3809, 1063, 1868, 1681, 1869
 3810, 1626, 1686, 2342, 2116
 3811, 1944, 2588, 2171, 2461
 3812, 1626, 1657, 1686, 2150
 3813, 1679,  463,  457,  464
 3814, 2192,  205,  204,  191
 3815, 1680, 2193, 2286, 2584
 3816, 1477, 1215, 1216, 2522
 3817, 1477, 1556, 1479, 2400
 3818, 1529,  471,  465,  472
 3819, 2297,  469,  468,  462
 3820, 2555,  485, 2589, 2338
 3821, 1625, 1393, 1869, 2032
 3822, 1625, 1393, 1681, 1869
 3823, 2319,  469,  463,  470
 3824, 2314,  461,  467,  460
 3825, 2319, 1679,  464,  463
 3826, 1271, 1268, 1484, 1585
 3827, 1588,  459,  465,  458
 3828, 2075,  253, 2064,  254
 3829, 1477, 1556, 2405, 1478
 3830, 1625, 1627, 1605, 2032
 3831, 1953, 2161, 1409, 1690
 3832, 2589,   99,  100,  479
 3833, 1953, 1409, 1778, 1619
 3834,  176, 1953, 1778, 1619
 3835, 2323, 2325,  853,  834
 3836, 2204, 1126,  490,  489
 3837, 1562, 1953,   16, 1619
 3838, 2590,   96,   97,  461
 3839, 1894, 1562,   16, 1629
 3840, 1054, 1894, 1953, 1690
 3841, 1843, 1062, 2003, 1254
 3842, 1057, 1064, 1063, 1396
 3843, 1978, 1489,  454, 2579
 3844, 1245, 1307, 1724, 1252
 3845, 1475, 1909, 1910, 1474
 3846, 1724, 1517, 1956, 2004
 3847, 1059, 1062, 1956, 2005
 3848, 2283,   34, 2293,  462
 3849, 2137,  204,  203,  190
 3850, 1527,  473,  472,  466
 3851, 2026,  205,  218,  204
 3852, 1273, 1808, 1065, 1805
 3853, 2137,  203, 2026, 2294
 3854, 1105, 1205, 1520, 1443
 3855, 2004, 1062, 2005, 1956
 3856, 2295, 2192,  191,  192
 3857, 2096,  476,  469,  470
 3858, 1315, 2189, 1580, 2351
 3859, 1724, 2004, 1062, 1254
 3860, 1314, 1318,  477,  471
 3861, 1680, 2090, 2137, 2297
 3862, 1206, 1209, 1984, 1207
 3863, 1584, 1534, 1566,  870
 3864, 1220, 2259, 1211, 1184
 3865, 1522, 1523, 1524, 1630
 3866, 1558,  887, 2590,  868
 3867, 2591,   98,  467,   97
 3868, 2188,  479,  478,  472
 3869, 1979, 2141, 2579, 2576
 3870, 2318,  232,  231,  218
 3871, 2585, 2590, 2314,  461
 3872, 1211, 2015, 1219, 2329
 3873, 1620, 1984, 1985, 1209
 3874, 1206, 1213, 1210, 1207
 3875, 1791, 2427, 1794, 2049
 3876, 1318,  472,  478,  471
 3877, 2010, 1630, 1185, 2220
 3878, 2373,   70,   71,  380
 3879, 2010, 2329, 2224, 2011
 3880, 2010, 2224, 2329, 1184
 3881, 1211, 1184, 2010, 2329
 3882, 1074, 1071, 1072, 1420
 3883, 1802, 1988, 1783, 2209
 3884, 1834, 1831, 1830, 2289
 3885,  891, 2498,  890, 1756
 3886, 1096, 2104, 1950, 2134
 3887, 1309, 1315, 1124, 1318
 3888, 1098, 1661, 1502, 1662
 3889, 1093, 1516, 1087, 1519
 3890, 2505,  468,  469,  475
 3891, 2165, 1854,  946,  965
 3892, 1472, 2592, 1911, 2593
 3893, 2088,  480, 2298,  474
 3894, 2298,   37,   36,  480
 3895, 1870,  475,  476,  482
 3896, 1803, 1806,  893,  874
 3897, 1140, 1367, 1089, 1977
 3898, 1125, 2582, 2555, 1126
 3899, 1325, 1093, 1516, 1087
 3900, 1318,  471,  478,  477
 3901, 2188, 1318, 1527,  472
 3902, 1105, 1240, 1251, 1717
 3903, 1870,  481,  475,  482
 3904, 1140, 1977, 1249, 1367
 3905, 1611,  487,  493,  486
 3906, 1090, 1098, 1100, 1094
 3907, 1313,  477,  483,  476
 3908, 1672, 1673,  377,  378
 3909, 1124,  484,  483,  477
 3910, 2332, 1675, 1895, 2594
 3911, 1671, 1676, 1677, 2594
 3912, 2332, 2240, 1859, 1895
 3913, 1076, 1054, 1562, 1410
 3914, 2582,  485,  478,  479
 3915, 1415, 1513, 1523, 2131
 3916, 1514, 1513, 1415, 2130
 3917, 1522, 1630, 1524, 1562
 3918, 1408, 1410, 1999, 1409
 3919, 2068, 1827, 1826, 2440
 3920, 2583,  473,   98,   99
 3921, 1738, 1487, 2431, 2050
 3922, 1738, 1895, 1739, 1737
 3923, 2298,   37, 2142,  193
 3924, 2298, 2295, 2505,  474
 3925, 1390,  207,  221,  220
 3926, 1269, 2068, 1043, 1586
 3927, 1881,  206,  193,  207
 3928, 2301,  195,  194,   38
 3929, 1046, 1043, 1276, 1827
 3930, 1388,  522,  517,  523
 3931, 1270, 1488, 1045, 1276
 3932, 2303,  498,   40,   39
 3933, 2330,  221,  208,  222
 3934, 1321, 1440, 1635, 1437
 3935, 1123, 1309, 1124, 1313
 3936, 1591, 1940, 2302, 2556
 3937, 2595,  484,  485,  491
 3938, 1940, 1590, 2561, 2323
 3939, 2331, 1610,  499,  498
 3940, 2368,  249,  248,  235
 3941, 1591, 1935, 1940,  814
 3942, 1940,  833, 2556,  814
 3943, 1591, 2302, 1378, 1592
 3944, 1390, 2330,  221,  208
 3945, 1591, 1748, 1632, 1934
 3946, 2596,  103, 2597, 1001
 3947, 1693, 1696, 1695, 1699
 3948, 1696, 1207, 2528, 2551
 3949, 2598,  925,  926,  945
 3950, 1693, 1696, 1208, 1695
 3951, 2589,  100,  485,  479
 3952, 1500, 2065, 1546, 2599
 3953, 1098, 1100, 1502, 1500
 3954, 2595,  491,  490,  484
 3955, 1500, 2266, 1502, 2451
 3956, 1500, 1501, 2600, 2451
 3957, 1099, 1500, 1501, 1898
 3958, 2301, 2327,  194,  195
 3959, 1780, 1925, 1568, 2196
 3960, 2308,  197,   40,   41
 3961, 1128,  482,  489,  488
 3962, 1582, 1841, 1579, 1084
 3963, 2308,  504,   40,  498
 3964, 2307, 2326, 2308,  196
 3965, 2331, 2113,  504,  505
 3966, 1388,  517, 1387,  523
 3967, 1715, 1716, 1857, 1858
 3968, 1181, 1281, 1284, 1282
 3969, 1281, 1858, 1282, 1682
 3970, 2103, 2391, 2389, 2390
 3971, 1390,  207, 2327,  208
 3972, 1715, 1858, 1281, 1716
 3973, 2016,  549,  548,  543
 3974, 1187, 1182, 1195, 1202
 3975, 1096, 1093, 1092, 2104
 3976, 1497, 1666, 1663, 1660
 3977, 1390,  208,  221,  207
 3978, 2093,  965,  984,  964
 3979, 1128,  488, 1880,  482
 3980, 2342, 2031,  264, 2033
 3981, 2601, 2596,  503, 2597
 3982, 1903, 2500, 1949, 2419
 3983, 2170, 1944, 2169, 2459
 3984, 1272, 1791, 1765, 2050
 3985, 1091, 1092, 1088, 2103
 3986, 2602, 2603,  500,  506
 3987, 1587, 1096, 1946, 1950
 3988, 1838,  503,  502,  496
 3989, 2092, 2091, 2202, 2367
 3990, 2169, 1764, 2184, 2459
 3991, 2338,  101,  491,  485
 3992, 2169, 2398, 2349,  556
 3993, 1883, 1937, 1882, 2604
 3994, 1611,  492,  486,  493
 3995, 2327,  208,  207,  194
 3996, 1883, 1882, 1937, 1846
 3997, 2303,  498,   39,  492
 3998, 1857, 1883, 1846, 1882
 3999, 2380, 2381,  524,  530
 4000, 2091, 1852,  945, 2197
 4001, 2122,  946, 1852, 2197
 4002, 1883, 1846, 1982, 1199
 4003, 1883, 1199, 1982, 2605
 4004,   70,  696,   69,  393
 4005, 1943, 1883, 2535, 1200
 4006, 1883, 1882, 2535, 2604
 4007, 2529, 2380, 2381,  524
 4008, 1883, 2605, 1200, 1199
 4009, 2204,  496,  495,  489
 4010, 1477, 2042, 2043, 2522
 4011, 2093,  964,  984,  983
 4012, 2115, 1381, 1388, 1387
 4013, 1610,  498,  492,  499
 4014, 2367,  982,  101,  963
 4015, 2058,  499,  493,  500
 4016, 1640, 1531, 1538, 1533
 4017, 2592, 2606, 2309,  508
 4018, 1837,  501,  495,  502
 4019, 1628, 1538, 1340, 1533
 4020, 1334, 1617, 1758, 1426
 4021,  490, 1838,  496,  497
 4022, 1334, 1758, 1447, 1426
 4023, 1428, 1262, 1264, 1265
 4024, 1428, 1431, 1427, 1432
 4025, 2367,  102,  497,  491
 4026, 1538, 2105, 1706, 1685
 4027, 1559, 1340, 1263, 1543
 4028, 2149, 1538, 1542, 1259
 4029, 1906, 1126, 2204,  489
 4030, 1607, 1960, 1768, 1928
 4031, 1565, 1960, 1168, 1768
 4032, 2311,   42,   41,    6
 4033, 1101, 1176, 1565, 1960
 4034, 2306,   43,  510,  516
 4035, 1711, 1563, 1398, 1775
 4036, 2206, 1002, 2607, 1001
 4037, 1930,  511,  109,  108
 4038, 1476, 1609, 2058, 1942
 4039, 1703, 1709, 1711, 1398
 4040, 1609,  487, 1611, 1880
 4041, 2311,   42,  110,  510
 4042, 1563, 1399, 1564, 2277
 4043, 1563, 1564, 1110, 2277
 4044, 1912,  500,  494,  501
 4045, 1703, 1399, 1563, 1712
 4046, 1463, 1680, 2026, 2294
 4047, 2147,  521,  515,  111
 4048, 1438, 1439, 1440, 2027
 4049, 1309, 1314, 1318, 1124
 4050, 2119, 1388, 2353,  522
 4051, 1544, 1549, 1529, 1588
 4052, 1978, 1437, 1490, 1489
 4053, 1490,  453, 1491,  452
 4054, 2595, 2204, 1126,  490
 4055, 1489, 1491,  459, 1549
 4056, 2595,  491,  497,  490
 4057, 1238, 1913, 1237, 1383
 4058, 1309, 1316, 1746, 1853
 4059, 2597,  497,  102,  103
 4060, 1549, 1588, 1548, 1529
 4061, 1588, 1548,  459, 1549
 4062,  465, 1588, 1548,  459
 4063, 1461, 1459, 1526, 1567
 4064, 1489, 1526, 1548, 1652
 4065, 1596, 1869, 2032, 2033
 4066, 1573, 1598, 2143, 2034
 4067, 2315, 2073, 2337, 2316
 4068, 2143, 2073, 2337, 2315
 4069, 1929, 1470, 1930,  512
 4070, 1929,  108,  506,  107
 4071, 2315, 1573, 1574, 2143
 4072, 1571, 2073, 2316, 2072
 4073, 2593, 1836, 1471,  519
 4074, 2113,  109,  504,  505
 4075, 1573, 1574, 2143, 2542
 4076, 1929, 2309, 2602, 2593
 4077, 2608,  520,  515,  521
 4078, 1373, 1574, 1375, 1571
 4079, 1373, 1571, 1573, 1574
 4080, 2073, 2316, 2071,  239
 4081, 2602,  506,  500,  507
 4082, 2603,  505,  499,  506
 4083, 1571, 2315, 1573, 1574
 4084, 2073,  239, 2030, 2359
 4085, 2202,  982,  983, 1002
 4086, 2337, 2073, 2359,  238
 4087, 2034, 2073, 2359, 2337
 4088, 1628, 1758, 1483, 1447
 4089, 2309, 2593,  513,  514
 4090, 2331,  505,  504,  498
 4091, 1706, 2463, 2105, 1639
 4092, 1706, 2393, 1685, 2609
 4093, 2423, 2489, 2488,  720
 4094,  720,   73,   74, 2489
 4095, 2601,  508,  502,  509
 4096, 2309,  514,  513,  106
 4097, 2489,   73,   74,  341
 4098, 2488, 2476,  715,  714
 4099, 2596,  509,  503,  104
 4100, 2488, 2476,  714, 2475
 4101, 1187, 1182, 1192, 1195
 4102, 1180, 1219, 1224, 1221
 4103, 1213, 1190, 1212, 1214
 4104, 1179, 2238, 1190, 2259
 4105, 1882, 2006, 2264, 2481
 4106, 2309,  508,  106,  507
 4107, 2311, 2113, 2307,  510
 4108, 2478, 2480, 2557, 2269
 4109, 1394, 1395, 1339, 1483
 4110, 1888, 2481, 1882, 1939
 4111, 2593,  513,  514,  519
 4112, 1930,  108,  109,  505
 4113, 2390, 2371, 2190,  535
 4114, 1943, 2539, 2535, 2264
 4115, 1198, 1943, 2538, 1197
 4116, 2610,    9,  111,  515
 4117, 1193, 2296, 1200, 2611
 4118, 2605, 1883, 2535, 2604
 4119, 1362, 1370, 1300, 1301
 4120, 1407, 1075, 1405, 1406
 4121, 1172, 1174, 1177, 1923
 4122, 1368, 1301, 1302, 1370
 4123, 1291, 1821, 1082, 1081
 4124, 1362, 1370, 1859, 1828
 4125, 2080, 1593, 1370, 1368
 4126, 1050, 1433, 1038, 1434
 4127, 1048, 2504, 1052, 1056
 4128, 1486, 1452,  640, 2515
 4129, 1486,  635, 1455, 2612
 4130, 1486, 1050, 2612, 1455
 4131, 2516, 1691,  613, 2508
 4132, 1691, 1405, 1692,  613
 4133, 1760, 1406, 1793, 1792
 4134, 1691, 1404, 1405, 1406
 4135, 2606,  106,  508,  105
 4136, 2610,  105,  509,    9
 4137, 1691, 2211, 1404, 1801
 4138, 2516, 2211, 1691, 1801
 4139, 1760, 1801, 1404, 1759
 4140, 1760, 1691, 1801, 1793
 4141, 2516, 1691, 1692,  613
 4142, 2119, 2306,  516,   43
 4143, 1681, 2342, 2033, 2031
 4144,  516, 2115, 2114,  510
 4145, 1691, 1404, 2211, 1692
 4146, 2211, 2235,  180,  174
 4147, 2113, 2114,  510,  511
 4148, 1930,  108,  505,  506
 4149, 2211, 1731,  179, 2456
 4150, 1930,  511, 2113,  109
 4151, 2603,  506,  499,  500
 4152, 2211, 2235, 2247,  180
 4153, 2353,   44,  522,   45
 4154, 2307,  196,  197,  210
 4155, 2381,  530,  529,  524
 4156, 1825, 1917, 2435, 2154
 4157, 1929,  107,  506,  507
 4158, 1917, 2257,  376, 2154
 4159, 2114,  517,  511,  512
 4160, 2369,  534,   46,  528
 4161, 1929, 1470,  512,  513
 4162, 2602,  507,  500,  501
 4163, 1917,  376, 2435, 2154
 4164, 2601,  503,  509,  502
 4165, 1470,  519,  518,  513
 4166, 2610,  515, 2606,  105
 4167, 2606,  509,  105,  508
 4168, 2592,  507,  501,  508
 4169, 2592,  501,  502,  508
 4170, 2596, 2610,  104, 1020
 4171, 2494, 1917,  363,  364
 4172, 1917, 2257, 2256,  363
 4173, 2596,  104,  503,  103
 4174, 1046, 1829, 1895, 1737
 4175, 1272, 1587, 1794, 1791
 4176, 1895, 1830, 2292, 1897
 4177, 1895, 2484, 1675, 2240
 4178, 2610,    9,  509,  104
 4179, 2608,  520,  514,  515
 4180, 2610, 1020,  111,  104
 4181, 2332, 2240, 1895, 1675
 4182, 2147,  112,  521,  111
 4183, 1895, 1739, 1737, 1897
 4184, 1488, 1739, 1738, 1487
 4185, 1738, 2460, 2487, 2484
 4186, 1738, 2050, 2431, 2613
 4187, 1039, 1044, 1043, 1040
 4188, 2353,  223,   45,  236
 4189, 1495,  231, 2318,  232
 4190, 2119, 1388,  522,  516
 4191, 2330,  208,  209,  222
 4192, 2068, 2442, 1738, 2444
 4193,  517, 2115, 2114,  516
 4194, 1827, 2495, 1301, 2440
 4195, 1945, 2427, 1791, 2469
 4196, 1945, 1950, 1946, 2242
 4197, 2303, 2301,   39,  195
 4198, 2119,  516, 2306, 2115
 4199, 2614, 1790, 2291, 1145
 4200, 1388,  517,  522,  516
 4201, 1338, 1339, 1340, 1478
 4202, 2058,  493,  494,  500
 4203, 1449, 1267, 1781, 1108
 4204, 1272, 1791, 2050, 1145
 4205, 2593, 1470,  513,  519
 4206, 1950, 2243, 1448, 2134
 4207, 2353, 2368, 2370, 1392
 4208, 1387,  518,  523,  517
 4209, 1372, 1378, 1377, 1871
 4210, 1912,  501,  494,  495
 4211, 1471,  519,  524,  518
 4212, 1387,  523,  518,  524
 4213, 1930, 2113, 2603,  505
 4214, 2373,   71,  367,  380
 4215, 1421, 1297, 1462, 1285
 4216, 1468, 1469, 1312, 2090
 4217, 1464, 1975, 1469, 1423
 4218, 2381,  524,  529,  523
 4219, 2202,  982, 1002, 1001
 4220, 1860, 2615, 2093, 2616
 4221, 2146,  526,  521,  527
 4222, 1863,  495,  488,  489
 4223, 1468, 1467, 1469, 2089
 4224, 1297, 1732, 1462, 1727
 4225, 2202, 1001, 2597,  982
 4226, 1836,  526,  525,  520
 4227, 1667, 1150, 1422, 1307
 4228, 2595, 1838,  497, 2367
 4229, 1470,  518,  512,  513
 4230, 2103, 2000, 2554, 1092
 4231, 2554,  247, 2120,  248
 4232, 2354,  248,  262,  261
 4233, 2250,  249,   46,   47
 4234, 2103, 2390, 2190, 2414
 4235, 2402, 2419, 1903, 1551
 4236, 1480, 1484, 1044, 1042
 4237, 1484, 1763, 1585, 2037
 4238, 2145, 2530, 2146,  527
 4239, 2554,  247,  261,  260
 4240, 2088,  481,  480,  474
 4241, 2202,  982,  963,  983
 4242, 2145,  527,  521,  112
 4243, 1484, 1270, 1485, 1480
 4244, 2038, 1763, 2588, 2171
 4245, 2555, 2091, 2338,  944
 4246, 1471,  525,  524,  519
 4247, 2352,  260,  246,  247
 4248, 2299, 2305,  205,  206
 4249, 2391,  261,  275,  274
 4250, 2038, 1763, 2171, 1485
 4251, 1096, 2103, 1946, 2104
 4252, 2134, 1950, 2136, 2245
 4253, 1093, 2245, 2104, 2134
 4254, 2104, 2242, 2244, 2416
 4255, 2230, 2426, 2361, 1028
 4256, 2517, 1973, 2483, 1958
 4257, 2104, 2389, 2360, 1092
 4258, 2145, 2530,  527, 1713
 4259, 2104, 2360, 2416, 2244
 4260, 2103, 2389, 2104, 1092
 4261, 1852,  945,  965,  964
 4262, 1125, 1316, 2351, 1315
 4263, 1602, 2418, 1875, 1901
 4264, 1142, 1307, 1422, 1150
 4265, 1976, 1853, 1316, 2411
 4266, 1853, 1854, 2164, 1227
 4267, 1227, 1851, 1475, 1230
 4268, 1123, 1129, 1906, 1230
 4269, 1125, 1853, 2087, 2197
 4270, 1853, 1316, 2411, 2197
 4271, 2402,  548, 2500, 2419
 4272, 2350, 2371,  529, 2381
 4273, 1391,  221,  222,  235
 4274, 2370,  528,  523,  529
 4275, 2500, 2016, 2502,  549
 4276, 2500,  548, 2016,  549
 4277, 1390, 1391, 2322,  221
 4278, 2555,  945, 2598, 2197
 4279, 1903, 1946, 2419, 1949
 4280, 2380,  525,  530,  524
 4281, 2119, 1388, 2328, 1392
 4282, 1595, 1393, 1605, 2032
 4283,  547,  548, 2419, 1949
 4284, 2368, 2369,  249,  236
 4285, 2500,  554, 1949,  548
 4286, 2390, 2249, 2250,  540
 4287, 2500, 1949,  554, 2502
 4288, 2250,   47,  534,  540
 4289, 1088, 1086, 1092, 1087
 4290, 2118,  234, 2120,  247
 4291, 1602, 1875, 1877, 1901
 4292, 1977, 1135, 1130, 1140
 4293, 2586,  245, 1496,  246
 4294, 1500, 2267, 2451, 2600
 4295, 1466, 1135, 1148, 1132
 4296, 1713,  533,  527,  113
 4297, 1134, 1226, 1232, 1229
 4298, 2197, 2351,  927,  926
 4299, 1743, 1466, 1127, 1468
 4300, 1124,  478,  484,  477
 4301, 2303,  196,   39,   40
 4302, 2307, 2330, 2326,  209
 4303, 1298, 1299, 2029, 1279
 4304, 2530,  533,  532,  527
 4305, 2090, 2192, 2089, 2137
 4306, 2090, 2505, 2137, 2297
 4307, 2089, 2137, 1469, 2090
 4308, 1680, 2090, 2297, 2319
 4309, 2203, 1838, 2092, 2202
 4310, 2595, 2087, 2204, 2092
 4311, 1627, 1532, 1625, 1478
 4312, 1471,  518, 1470,  519
 4313, 2092, 2555, 2338, 2595
 4314, 2342, 1720, 2358, 1653
 4315, 2119, 1392, 2353, 1388
 4316, 2378,  531,  536,  530
 4317, 2554,  248,  261,  247
 4318, 2092, 2087, 2091, 2555
 4319, 2092, 2338, 2555, 2091
 4320, 2371,  530,  536,  535
 4321, 2390,  535,  541,  540
 4322, 2380,  531,  530,  525
 4323, 2092, 2595, 1838, 2204
 4324, 2413,   48, 2249,  546
 4325, 1908, 1640, 1533, 1589
 4326, 1465, 1316, 2351, 2321
 4327, 2419,  542,  547,  541
 4328, 2414,  541,  546,  540
 4329, 2300,  487,  480,  481
 4330, 1297, 2029, 1299, 1459
 4331, 2028,  927,  908,  928
 4332, 1465, 2351, 1316, 1315
 4333, 2586,  245,  259,  258
 4334, 2586,  245,  246,  259
 4335, 1668, 2102,  256,  257
 4336,  690,  393,   69,  696
 4337, 2596, 2608, 2610, 1020
 4338, 2616,  965,  966,  985
 4339, 2062,  538,  537,  532
 4340, 1870, 1127, 1880,  482
 4341, 1908, 1533, 1600, 1589
 4342, 2349,  550,  555,  549
 4343, 1757,  911,  910,  891
 4344, 1299, 1459, 1583, 1537
 4345, 2520,  968,  967,  948
 4346, 1625, 2342, 1899, 2033
 4347, 1465, 1537, 1580, 1528
 4348, 1286, 2064,  254, 1253
 4349, 2617,  115,  116,  545
 4350, 2365,  115,  539,  114
 4351, 2518,  539,  538,  533
 4352, 1424, 1462, 1463, 1464
 4353, 1871, 1461, 1380, 1372
 4354, 1668,  257,  243,  244
 4355, 2618,  117,  118,  557
 4356, 2413,   49,  546,  552
 4357, 1645, 1646, 1656, 1649
 4358, 2412,  287,  274,  288
 4359, 2390,  540,  534,  535
 4360, 1463, 1726, 1439, 2285
 4361, 2412,  288, 1948,  287
 4362, 2416,  273,  274,  287
 4363, 2412,  274,  275,  288
 4364, 2249,   48,  275,  262
 4365, 2416, 2412,  287,  274
 4366, 1725,  215, 1726, 1733
 4367, 2412, 2414, 2249, 2391
 4368, 2441, 2444, 2240,  351
 4369, 2249,   47,  540,   48
 4370, 1218, 1590, 2325, 2323
 4371, 2453,   51,  314,  301
 4372, 1643, 1642, 1377, 1218
 4373, 1595, 1643, 1244, 1393
 4374, 2619, 1008, 1027, 1007
 4375, 2118, 2000, 2554, 2120
 4376, 2414,  546,  541,  547
 4377, 1948,  287,  301,  300
 4378, 2454,  559,  565,  564
 4379, 2470,  314,  313,  300
 4380, 1218, 1590, 2561, 1871
 4381, 1218, 2561, 1590, 2323
 4382, 2121,  927,  928,  947
 4383, 1757,  911,  891,  892
 4384, 1444, 1445, 1447, 2465
 4385, 2357, 1633, 1848, 1574
 4386, 2620,  543,  538,  544
 4387, 1633, 2135, 1647, 2334
 4388, 1633, 1647, 2135, 1848
 4389, 2065,  550,  544,  545
 4390, 1588,  464,  471,  470
 4391, 1322, 1574, 1320, 1633
 4392, 1244, 1061, 1245, 1065
 4393, 1645, 1323, 1633, 1659
 4394, 1645, 1633, 2284, 1659
 4395, 2375,  891,  871,  872
 4396, 1327, 1741, 2223, 2572
 4397, 1979, 1980, 1567, 2587
 4398, 1375, 1571, 1659, 2072
 4399, 1436, 1979, 1567, 1652
 4400, 1327, 1979, 1978, 2559
 4401, 2559, 1979, 2576, 2221
 4402, 2399,   50,  301,  288
 4403, 1328, 2223, 1980, 2221
 4404, 2242,  286,  300,  299
 4405, 2249,  540, 2414,  546
 4406, 1160, 1143, 2614,  311
 4407, 2548, 2545,  411, 2528
 4408, 2548, 2408, 2528,  411
 4409, 2548, 2550, 1683, 2549
 4410, 2412,  274, 2391,  275
 4411, 1954, 1616, 1938,  690
 4412, 2550, 2551, 2545, 2548
 4413, 1581, 2408, 2548, 1282
 4414, 2621, 1023, 1003, 1004
 4415, 2244,  285,  272,  286
 4416, 2379, 2061,  537,  536
 4417, 2529, 1387,  524, 2381
 4418, 2548, 1683, 2528, 1687
 4419, 1886, 2479, 2622, 2007
 4420, 2469,  559,  558,  553
 4421,  380, 2373,  393, 2433
 4422, 1947,  553,  552,  547
 4423, 1084, 1224, 1579, 1223
 4424, 2431,  571,  566,  572
 4425, 2049,  565,  560,  566
 4426, 1160,  325,  324,  311
 4427, 1084, 1224, 2015, 1983
 4428, 1081, 1082, 1291, 1292
 4429, 2066,  544,  549,  543
 4430, 1702, 1709, 1705,  321
 4431, 1492, 2305, 1742, 2318
 4432, 1545, 1130, 1234, 1088
 4433, 1224, 1225, 1221, 1621
 4434, 1274,  874,  873,  854
 4435, 1224, 1622, 1225, 1621
 4436, 2623,  551,  545,  116
 4437, 1078, 1211, 2015, 1224
 4438, 1167, 1907, 1579, 1842
 4439, 1211, 1524, 2010, 1985
 4440, 2157,  297,  310,  296
 4441, 2623,  117,  551,  116
 4442, 2065,  550,  545,  551
 4443, 2624,  557,  556,  551
 4444, 1220, 1214, 1211, 2259
 4445, 1577, 1722, 1288, 1594
 4446, 1289, 1293, 1290, 1169
 4447, 2422,  746,  747,  753
 4448, 2387,  562,  556,  557
 4449, 1153, 1154, 1155, 1156
 4450, 2413,  288,  275,   49
 4451, 1577, 1812, 1578, 1813
 4452, 1160,  311,  312,  325
 4453, 1949,  554,  553,  548
 4454, 2399,  552,   50,   49
 4455, 1951,  300,  313,  299
 4456, 1951,  313,  312,  299
 4457, 1077, 1577, 1784, 1578
 4458, 1851, 1860, 1475, 1910
 4459, 1547, 1861, 2018, 1864
 4460, 1475, 1473, 1835, 1864
 4461,  548,  549, 2500,  554
 4462, 1864, 2018, 2061, 2062
 4463, 2241,  285,  299,  298
 4464, 2614,  311,  298,  312
 4465, 2061, 1864, 1550, 2018
 4466, 1903, 1949, 2500, 2502
 4467, 2244,  272,  273,  286
 4468, 1711, 1775, 1774, 2063
 4469, 2004,  268, 2407, 2003
 4470, 1864, 1835, 2621, 2530
 4471, 1864, 1473, 1835, 2530
 4472, 2573,  849,   94,  830
 4473, 2442,  325,  339,  338
 4474, 2399, 1947, 2469,  552
 4475, 1634,  744,   78,   77
 4476, 2136,  284,  298,  297
 4477, 2625,  573,  567,  568
 4478, 2063, 2109,  332, 1777
 4479, 1853, 2122, 2197, 2411
 4480, 1235, 1473, 1864, 1550
 4481, 2392,  949,  930,  950
 4482, 1382, 2350, 2370, 2381
 4483, 2008,  967,  966,  947
 4484, 1990,  322,  336,  335
 4485, 1473, 2108, 2530, 1864
 4486, 1344,  712, 1817,  706
 4487,  295, 2048,  308,  309
 4488, 1345, 1855, 1350, 1351
 4489,  910, 1756,  891,  890
 4490, 1350, 2101, 1344, 2274
 4491, 1344, 1818, 1817,  712
 4492, 2101,  719,  718,  712
 4493, 1992, 1997, 1225, 1622
 4494, 1997, 1967, 1441, 1907
 4495, 2173,  119,  563,  118
 4496, 1907, 2562, 1967, 1165
 4497, 2427,  554,  560,  559
 4498, 2166, 2243, 2290, 2136
 4499, 2453, 2399,   50,  301
 4500, 1083, 1223, 1084, 1579
 4501, 2613, 2432,  564,  570
 4502, 1579, 1907, 1225, 1842
 4503, 1419, 1907, 1842, 1441
 4504, 2470,  301,  314,  300
 4505, 2241, 2614,  299, 1951
 4506, 1951, 1790, 1950, 2614
 4507, 2241,  285, 2244,  286
 4508, 1978,  448,  454,  447
 4509, 2472, 2484, 2485, 2487
 4510, 2443,  324,  338,  337
 4511, 2402, 2419, 1551, 2190
 4512, 2097, 2440, 1826, 2099
 4513, 1310, 1466, 1127, 1746
 4514, 1124, 2582,  484,  478
 4515, 2241, 2291, 2136,  298
 4516, 2241, 2614, 2291,  298
 4517, 2626,  572,  567,  573
 4518, 2460,  327, 2452, 2432
 4519, 2450, 2578, 1765, 2466
 4520, 1809, 2022, 1970,  896
 4521, 1806,  894,  893,  874
 4522, 2436,  873,  853,  854
 4523, 2450, 1765, 2431, 1487
 4524, 1634,  289, 1417,   77
 4525,  269, 2004,  268, 2407
 4526, 2450,  572, 1735, 2431
 4527, 2450, 2578, 2466,  566
 4528, 1990,  323,  324,  337
 4529, 2168, 2158,  842,  841
 4530, 2230,  120,  569,  119
 4531, 1628, 1758, 1657, 1626
 4532, 2625,  574,  568,  569
 4533,  567, 2450,  572, 2626
 4534, 2472, 2487,  576,  570
 4535, 2450, 2626,  567, 2466
 4536, 1477, 1215, 2522, 2400
 4537, 1981, 1995, 1013, 1750
 4538, 1710,  348,  347,  334
 4539, 1595, 1605, 1604, 1602
 4540,  574, 2229,  575,  569
 4541, 1241, 1254, 1724, 1062
 4542, 1241, 1242, 1517, 1724
 4543, 1914,  821, 1260,  822
 4544, 2048, 2157,  309,  295
 4545, 1061, 1060, 1062, 1254
 4546, 1733, 1729,  228,  229
 4547, 1063, 1253, 1843, 1865
 4548, 2453,  558,  564,   51
 4549, 1477, 1394, 1393, 1064
 4550, 2243, 2134, 1520, 1448
 4551, 2453, 2470, 2399,  301
 4552, 2454,  564,  558,  559
 4553, 1605, 2405, 1627, 1478
 4554, 2157, 2166, 2290,  297
 4555, 1941, 1493, 2318,  220
 4556, 1899, 1901, 1589, 2422
 4557, 2458,  313,  326,  312
 4558, 2184,  562,  567,  561
 4559, 1394, 1681, 1396, 1483
 4560, 1394, 1626, 1681, 1483
 4561, 1788,  957,  937,  938
 4562, 2444,  338,  352,  351
 4563, 1216, 2044, 2325, 1603
 4564, 1676,  366, 1677,   55
 4565, 1086, 1087, 1147, 1669
 4566, 1099, 1091, 1551, 1903
 4567, 1979, 2221, 1980, 2141
 4568, 1141, 1307, 1151, 1723
 4569, 1093, 2104, 2245, 1092
 4570, 1087, 1669, 1326, 1147
 4571, 1094, 1662, 1503, 1367
 4572, 2581,  893,  913,  912
 4573, 1093, 1519, 1087, 1092
 4574, 2613,  565,  571,  570
 4575, 2231,  563,  569,  568
 4576, 1131, 1307, 1141, 1142
 4577, 1140, 1977, 1148, 1249
 4578, 1627, 2418, 1901, 2422
 4579, 2281,  837,  818,  838
 4580, 2230,  119,  569,  563
 4581, 2258,  362,  361,  348
 4582, 1149, 1147, 2586, 1669
 4583, 2436,  873,  872,  853
 4584,  748, 2280,  741, 2279
 4585, 1853, 2164, 2122, 1976
 4586, 2625,  573,  568,  574
 4587,  572,  573, 1735,  578
 4588, 1605, 1602, 2032, 1627
 4589, 1598, 1877, 1899, 2032
 4590, 1601, 1597, 1873, 1936
 4591, 2032, 1877, 1899, 1901
 4592, 1602, 1627, 1901, 2032
 4593, 2360,  260, 2352, 2389
 4594, 2432,  327,  314,   52
 4595, 2360,  259, 2352,  260
 4596, 2360, 1519,  259,  272
 4597, 2241,  298, 2136,  285
 4598, 1585, 2036, 2037, 2382
 4599, 2191, 2221, 2575, 2560
 4600, 1671, 1675, 2332, 2594
 4601, 2613, 2454,  565,  564
 4602, 1675,  366,  365,  352
 4603, 2018, 1864, 1861, 2062
 4604, 2441,  337,  351,  350
 4605, 2218,  600,  606,   58
 4606, 1326, 2102, 1668,  257
 4607, 1294, 2067, 1891, 2497
 4608, 2171,  992, 1892, 1011
 4609, 2594,  588,  583,  589
 4610, 1862, 1861, 2627, 2628
 4611, 1860, 1854, 1507, 2165
 4612,  566,  567, 2450,  572
 4613, 2581,  932,  931,  912
 4614, 1230, 1851, 1475, 1909
 4615, 2251, 2195, 2196, 2570
 4616, 1860, 1910, 2093, 2615
 4617, 2443,  325,  338,  324
 4618, 1860, 2627, 1835, 2615
 4619, 1062, 2003, 1254, 2004
 4620, 2342, 1600, 1626, 1625
 4621, 1241, 1724, 1517, 1956
 4622, 2004, 1956, 2047, 1517
 4623, 1095, 2134, 1449, 1520
 4624, 2375,  872,  871,  852
 4625, 2229,  120,  575,  569
 4626, 1241, 1278, 1250, 1248
 4627, 1989,  586,  585,  580
 4628, 2260,  648,  140,  642
 4629, 2362,  580,  575,  581
 4630, 1712,  347,  346,  333
 4631, 1241, 1060, 1245, 1254
 4632, 1113, 1247, 1250, 1805
 4633, 1366, 2581, 2392, 1755
 4634, 2019,  574,  579,  573
 4635, 1241, 1247, 1248, 1250
 4636, 1659, 2072, 1732, 1375
 4637, 2097,  335,  349,  348
 4638, 2410,  820,  800,  801
 4639, 1727, 1644, 2072, 1728
 4640, 2176,  162,  803,  802
 4641, 2069,  123,  587,  122
 4642, 1297, 1459, 1871, 2029
 4643, 2518,  538,  532,  533
 4644, 1297, 1285, 1641, 1727
 4645, 1727, 1641, 1728, 1729
 4646, 1641, 1727, 1285, 1729
 4647, 2472,   53,  570,  576
 4648, 1732, 1439, 1379, 1462
 4649, 1739,  572,  578,  577
 4650, 2487,  571,  577,  576
 4651, 2441, 2240, 2494,  351
 4652, 2284, 2175, 1651,  212
 4653, 2315, 2316, 2284, 1659
 4654, 1671,  378,  365,  379
 4655, 1897,  578,  583,  577
 4656, 1291, 1785, 2268, 1786
 4657, 2292,  584,  589,  583
 4658, 1039, 1042, 1044, 1040
 4659, 2315, 2284, 2084, 2334
 4660, 2494,  350,  364,  363
 4661, 1677, 2485, 1896,  582
 4662, 2284, 2084, 2334, 2175
 4663, 2284,  226, 2316,  225
 4664, 1896,  582,  576,  577
 4665, 2005, 2003, 2004, 2407
 4666, 1350, 1855, 2158, 1351
 4667, 1491,  459,  458,  452
 4668, 1348, 1855, 1257, 1850
 4669, 1970,  896,  915,  895
 4670, 1855, 2384, 1257, 2629
 4671, 2276, 1257, 2158, 1855
 4672, 1838, 2601, 2597, 2206
 4673, 1855, 1856, 1818, 2100
 4674, 2588,  991,  971,  972
 4675, 1905,  579,  584,  578
 4676, 1855, 1257, 2384, 2276
 4677, 2179,  121,  581,  575
 4678, 1845, 1957, 1958, 1973
 4679, 2282, 2446, 2445, 2410
 4680, 2069,  122,  587,  581
 4681, 1845, 1341, 1972, 1823
 4682, 2176, 2217, 2180, 2501
 4683, 1933, 2304, 2417, 2123
 4684, 1844, 1845, 1341, 1957
 4685,  909, 2152, 1505,  910
 4686, 2014,  370, 2095,  357
 4687, 1844, 1166, 1885, 1361
 4688, 1988,  585, 1989,  586
 4689, 2001, 1885, 1958, 1845
 4690, 2447,  801,  164,  163
 4691, 1911, 2601, 2206, 2607
 4692, 1273, 1804, 1275, 1808
 4693, 1897,  578,  584,  583
 4694, 2485,  353,  340,   54
 4695, 2444,  338,  339,  352
 4696, 1673,  377,  391,  390
 4697, 2441,  338,  351,  337
 4698, 1376, 1591, 1632, 1576
 4699, 1672,  364,  365,  378
 4700, 2514,   57,  392,  379
 4701, 1678,  378,  392,  391
 4702, 1642, 1246, 1279, 2029
 4703, 1373, 1571, 1570, 1572
 4704, 1077, 1578, 1784, 1695
 4705, 1224, 2015, 2527, 1219
 4706, 1917,  363,  377,  376
 4707, 1671, 1675, 2594, 1677
 4708, 1211, 2010, 1184, 2630
 4709, 1673,  378,  391,  377
 4710, 2258,  349,  363,  362
 4711,  360, 2225,  374, 1721
 4712, 1989,  585,  579,  580
 4713, 1077, 1210, 1078, 1084
 4714, 2428,  976, 1509,  995
 4715, 2099, 2097,  350,  349
 4716, 1736,  578,  573,  579
 4717, 1904, 1737, 1897, 1830
 4718, 2110, 2631, 2457,  971
 4719, 1530, 1523, 1513, 2496
 4720, 1522, 1055, 1049, 1453
 4721, 2200,  917,  916,  897
 4722, 1076, 1522, 1415, 1523
 4723, 1995,  994,  995, 1014
 4724, 1584, 1534, 1459, 1566
 4725, 2632,  581,  586,  580
 4726, 2233,  880,  900,  899
 4727, 2236,  861,  881,  880
 4728, 1415, 1952, 1049, 1966
 4729, 1524, 1523, 2329, 1630
 4730, 1893, 1630, 1523, 1522
 4731, 1067, 1694, 1069, 1800
 4732, 1916,  860,  859,  840
 4733, 1963,  898, 2200,  897
 4734, 2447, 2177,  801,  163
 4735, 2633,  693,  694,  700
 4736, 1530, 2496, 1821, 1983
 4737, 1523, 2255, 2329, 1630
 4738, 2202, 2093, 2203, 2206
 4739, 2015, 2634, 2329, 2635
 4740, 2601, 2206, 2607, 2596
 4741, 2383, 2384, 2101,  719
 4742, 2110, 1944, 2588, 2457
 4743, 2110, 2588,  971, 2457
 4744, 1817,  706,  699,  700
 4745, 2042,  854,  835,  855
 4746, 1677,   55,  582,  588
 4747, 2110, 1663, 1944, 2457
 4748, 2377,  989, 2110, 2111
 4749, 2201, 1454,   13,  629
 4750, 2594, 2503,  589, 2159
 4751, 2594,  588,  582,  583
 4752, 2110, 1663, 2457, 2054
 4753, 2372,  597,  602,  596
 4754, 1378, 1567, 1566, 1871
 4755, 1591, 1632, 1748, 1592
 4756, 1328, 1378, 1980, 1592
 4757, 2218, 2533, 2508,  606
 4758, 2207,  598,  604,  603
 4759, 1572, 1597, 1575, 1573
 4760, 1322, 1320, 1575, 1330
 4761, 2533,  607,  606,  601
 4762, 1811, 1816, 1815, 1812
 4763, 2289,  591,  596,  590
 4764, 1940, 1378, 2636, 1590
 4765, 1378, 1871, 1566, 2636
 4766, 1802, 1689, 1932, 1995
 4767, 2159,  595,  589,  590
 4768, 1376, 1592, 1322, 1330
 4769, 1223, 1581, 1210, 1687
 4770, 1840, 1154, 2227, 1152
 4771, 1157, 1155, 1153, 1167
 4772, 1987,  587,  592,  586
 4773, 1634, 1417,  289, 1720
 4774, 2067,  973,  974,  993
 4775, 1792,  390,  404,  403
 4776, 1992, 1841, 1292, 1993
 4777, 2015, 1993, 2634, 1983
 4778, 2237,  918,  937,  917
 4779, 1841, 1993, 1224, 1983
 4780, 2211, 1801, 2247, 2235
 4781, 1581, 2548, 1687, 1683
 4782, 1762,  124,  593,  123
 4783, 2201,  621,  132,    1
 4784, 1329, 2312,  784,  778
 4785, 1328, 1979, 2221, 1980
 4786, 1331, 1320, 1647, 1324
 4787, 1676,  588,  594,   56
 4788, 1319, 2572, 1327, 1324
 4789, 2397,  601,  596,  602
 4790, 1810, 1792, 1673, 1678
 4791, 2503,  594,  588,  589
 4792, 1747, 1741, 1330, 1329
 4793, 1672,  364,  378,  377
 4794, 1995, 1013, 1750,  994
 4795, 2223, 1741, 1592, 1748
 4796, 1996,  920,  919,  900
 4797, 1793,  417,  404,  418
 4798, 2167,  900,  919,  899
 4799, 1591, 1592, 1748, 2556
 4800, 1747, 1632, 1330, 1741
 4801, 2287, 2372,  602,  596
 4802, 2218,  392,   58,  405
 4803, 1783,  598,  592,  593
 4804, 1327, 1979, 2559, 2221
 4805, 2211, 1731, 2216,  173
 4806, 2601, 2610, 2596, 2608
 4807,  981, 2637, 2013, 1631
 4808, 2397,  602, 1613,  601
 4809, 2209,  592,  597,  591
 4810, 2555, 1126, 2582,  484
 4811, 1966,  998, 1018, 1017
 4812, 1631, 2013,  980, 1893
 4813, 1761,  599,  593,  124
 4814, 1631, 1629, 2215, 1185
 4815,  936, 2200,  917,  916
 4816, 1631, 1630, 1185, 2013
 4817, 1522, 1631, 1630, 1453
 4818, 2601, 2592,  502,  508
 4819,  561,  560, 2466, 2398
 4820, 2503,  595,  594,  589
 4821, 2211, 2161, 1404, 2235
 4822, 2578, 2398,  560, 2427
 4823, 2450, 1765, 2578, 2049
 4824, 2450, 2578,  566, 2049
 4825, 1731, 2125,   28,  619
 4826, 2578, 2466,  566,  560
 4827, 2112, 2307, 2331, 2113
 4828, 2058, 1912, 1472, 2603
 4829, 1476, 1912, 2058, 1863
 4830, 1383, 2112, 1470, 2114
 4831, 2250, 2354, 2369,  249
 4832, 1381, 2115, 1388, 2328
 4833, 2130,  958,  959,  978
 4834, 2219,  405,   58,   59
 4835, 1471, 1472, 1383, 1238
 4836, 2218, 2514,   57,  392
 4837, 2533,  600, 2503,  601
 4838, 2595, 2338,  491,  485
 4839, 1209, 2234, 1619, 1620
 4840, 2112, 2331, 2307, 1942
 4841, 2112, 1610, 2331, 1942
 4842, 2601, 2596, 2610,  509
 4843, 2113,  505, 2331, 2112
 4844, 1613,  607,  601,  602
 4845,  602,  603, 2374,  608
 4846, 2601, 2592,  508, 2606
 4847, 1770, 1833, 1771, 1697
 4848, 2603, 2113, 2114, 2112
 4849, 2091,  945,  964,  944
 4850, 2112, 2603, 1472, 1470
 4851, 1364, 1821, 1365, 1291
 4852, 2210,  599,  604,  598
 4853, 2078, 2154, 2080, 1369
 4854, 2372,  597,  603,  602
 4855, 1514,  997,  977,  978
 4856, 2638,  637,  137,  636
 4857, 1540,  623,  129,  130
 4858, 1690,   14,  628,   15
 4859, 2639,  957,  977,  976
 4860, 1515,  998,  997,  978
 4861, 1684, 1730, 1615, 1035
 4862, 1370, 2099, 1368, 1301
 4863, 1370, 1368, 2099, 2258
 4864, 2080, 1368, 1370, 2258
 4865, 1684,  125,  605,  599
 4866, 1364, 1593, 1081, 1594
 4867, 2080, 1593, 1368, 1719
 4868, 2516, 1801, 2456, 2247
 4869, 2017, 2520, 1503, 1502
 4870, 2087, 2555, 2197, 2091
 4871, 1851, 1853, 1227, 1854
 4872, 1096, 2134, 1093, 2104
 4873, 2219, 2531, 1793,  418
 4874, 2531,  618,   60,  612
 4875, 2219,   59,  606,  612
 4876, 1095, 1662, 1240, 1717
 4877, 2235,  181,  180,  174
 4878, 1613,  608,  607,  602
 4879, 1824,  389,  390,  403
 4880, 2435,  376,  377,  390
 4881, 1449, 2134, 1448, 1520
 4882, 1325, 1093, 1095, 1520
 4883, 1131, 1130, 1135, 1140
 4884, 2397,  601,  595,  596
 4885, 1810, 1792, 1678, 2212
 4886, 1612,  607,  608,  613
 4887, 1090, 1099, 1097, 1100
 4888, 1195, 1552, 1194, 2482
 4889, 1792,  391, 1673, 1678
 4890, 1860, 1227, 1507, 1854
 4891,  656, 1194, 1552, 2482
 4892, 1612,  614,  613,  608
 4893, 1615,  611,  605,  126
 4894, 2131,  979,  978,  959
 4895, 2482, 1188,  655, 1192
 4896, 2482, 1192,  655,  661
 4897, 2482,  657, 1194, 2640
 4898, 1454,  629,  628,   14
 4899, 1187, 1188, 2482, 1192
 4900, 2482,  662, 1192,  661
 4901, 2482,  657, 2640,  662
 4902, 1455, 2612,  635,  629
 4903, 1811, 1284, 1152, 2310
 4904, 1636,  127,  617,  611
 4905, 1840, 1958, 1163, 1458
 4906, 1840, 1163, 1958, 2429
 4907, 1840, 2014, 2429, 2095
 4908, 1457, 2014, 1840, 2095
 4909, 1887, 1890, 2160, 2155
 4910, 1884, 2429, 1890, 1163
 4911, 1857, 1858, 1716, 1886
 4912, 1814, 1457, 2014, 1840
 4913, 1811, 2310, 1152, 1816
 4914, 1760,  417,  403,  404
 4915, 1164, 1456, 1814, 1458
 4916, 1801,  417,  418,  431
 4917, 1840, 1163, 1152, 1164
 4918, 1338, 1479, 1478, 1556
 4919, 1694, 1369, 1832, 2078
 4920, 1691, 2508, 1406, 1405
 4921, 1477, 1478, 1479, 1556
 4922, 1556, 2043, 1555, 2400
 4923, 1688,  619,  613,  614
 4924,  175,  176, 1953, 1778
 4925, 1819, 1341, 1343, 1817
 4926, 1612,  608,  609,  614
 4927, 1688,  620,  619,  614
 4928,  128, 1636, 1433, 1037
 4929, 1629, 1894,  633,  627
 4930, 1819, 1341, 1972, 1343
 4931, 1965,  608,  603,  609
 4932, 1345, 1342, 1350, 1344
 4933, 2201,  621,    1,  620
 4934, 1354, 1350, 1344, 2074
 4935, 1486, 1050, 2486, 1434
 4936, 1354, 2074, 1817, 2633
 4937, 1844, 1885, 1845, 1957
 4938, 2215,  633,  632, 1629
 4939, 1636,  127, 1036,  128
 4940, 1636,  616,  611,  617
 4941, 1050, 1453, 1452, 2486
 4942, 1354, 2074, 1344, 1817
 4943, 1344, 1342, 1350, 1354
 4944, 1165, 1361, 1352, 1353
 4945, 1133, 1670, 1669, 1132
 4946, 1342, 1341, 1346, 1957
 4947, 2612,  132,  622,  131
 4948, 1345, 1855, 1351, 1349
 4949, 1836, 2146, 1911, 1835
 4950, 1347, 1351, 1384, 1349
 4951, 1234, 2208, 2000, 1357
 4952, 1399, 1288, 1564, 2366
 4953, 1991, 2097, 1826, 1308
 4954, 2456,   26,  431,    4
 4955, 2598, 2351,  926,  907
 4956, 2516,  619, 1731,  618
 4957, 2516,  613,  618,  612
 4958, 2516,  613,  619,  618
 4959, 1731,  619,   27,  618
 4960, 1991, 1924, 1708, 1401
 4961, 1158, 1924, 1990, 1826
 4962, 1144, 1586, 1924, 1158
 4963, 1924, 1708, 1401, 1704
 4964, 2504,  615,  620,  614
 4965, 1692, 1688, 2125,  619
 4966, 1731,   28, 2125,  173
 4967, 1203, 1106, 1780, 2035
 4968, 2201, 2504, 1454, 1455
 4969, 1924, 1400, 1144, 1704
 4970, 1435,  635, 2612,  131
 4971, 1522, 1893, 1631, 1952
 4972, 1475, 1860, 1835, 1910
 4973, 1454,   13,  629,   14
 4974, 2504,  621,  616,  622
 4975, 1056,  616, 2504,  615
 4976, 1862, 1860, 1507, 2165
 4977, 1134, 1507, 1228, 1227
 4978, 1636,  617,  622,  616
 4979, 1135, 1746, 2164, 1227
 4980, 1851, 1227, 1860, 1854
 4981, 1130, 1606, 1228, 1507
 4982, 1851, 2203, 1910, 1909
 4983, 1860, 1227, 1851, 1475
 4984, 1540,  133,   10, 1038
 4985, 1690,   15, 2161,   14
 4986, 1879, 1476, 1232, 1942
 4987, 2486, 1019, 1018,  999
 4988, 1389, 2322, 1391, 2208
 4989, 1932, 1762, 1981, 1032
 4990, 2504,  621,  615,  616
 4991, 1381, 1382, 1237, 1389
 4992, 1129, 1742, 1879, 1232
 4993, 1123, 2087, 1906, 1126
 4994, 1232, 1390, 1389, 1493
 4995, 1389, 1233, 1493, 1133
 4996, 1540,   10,  641,  130
 4997, 1486, 2515, 1434, 2486
 4998, 1234, 1088, 2000, 2085
 4999, 1381, 1390, 1942, 2330
 5000, 1056,  610,  615,  609
 5001, 1381, 1391, 1390, 2330
 5002, 1267, 1585, 1666, 1781
 5003, 1088, 1092, 1357, 2000
 5004, 1093, 2134, 1516, 2245
 5005, 1140, 1977, 1135, 1148
 5006, 1963,  899,  898,  879
 5007, 2553, 1773,  427,  414
 5008, 1240, 1956, 1517, 2047
 5009, 1214,  141,    2,  624
 5010, 1095, 1520, 1093, 2134
 5011, 2225,  387,  386,  373
 5012, 1517, 1520, 2047, 2166
 5013, 2225,  387,  373,  374
 5014, 2212,  391,  405,  404
 5015, 1719,  375,  388,  374
 5016, 2023,  916,  935,  915
 5017, 2259,  648,  654,  141
 5018, 2299, 1743, 1742, 1881
 5019, 2276,  823,  804,  824
 5020, 2151,  292,  293,  306
 5021, 2167, 1787,  919, 2317
 5022, 1545, 1228, 1864, 1235
 5023, 1782,  346,  359,  345
 5024, 1816,  385,  384,  371
 5025, 1130, 1140, 1086, 1089
 5026, 1310, 1316, 1311, 1976
 5027, 2220,  624,   18,  625
 5028, 2012,  631,  630,  624
 5029, 2532, 1785, 1994,  939
 5030, 1950, 2291, 1790, 1448
 5031, 1629,  633,  632,  626
 5032, 1950, 2104, 2245, 2134
 5033,  627, 1894,   15,   16
 5034, 2244, 2136,  272,  285
 5035, 1435,  130,  131,  623
 5036, 2241, 2136, 2244,  285
 5037, 1699,  387,  400,  386
 5038, 2360, 2416,  273, 2389
 5039, 1435,  131,  622,  623
 5040, 1629,  627,  626,   16
 5041, 1486, 2486, 1452, 2515
 5042, 2104, 2360, 2244, 2245
 5043, 2244,  272, 2136, 2245
 5044, 1452, 1894, 2215, 1453
 5045, 2612,  132,  621,  622
 5046, 2170, 2461, 1944, 2459
 5047, 1663, 1502, 2451, 1501
 5048, 1433,  622, 1435, 1050
 5049, 1455,  628,  629,  635
 5050, 1540,  129, 1038,   10
 5051, 2201, 1454,  629, 1455
 5052, 2199,  139,   11,  142
 5053, 1501, 1099, 1098, 1500
 5054, 2521, 2409,  399, 1699
 5055, 2232, 2233, 1170, 2167
 5056, 2021, 1963, 2232, 2200
 5057, 1293, 1102, 2317, 1170
 5058, 2545,  424, 2512,  411
 5059, 1441, 1293, 1102, 2317
 5060, 1403, 1104, 1111, 1418
 5061, 1185,  631,  625,  632
 5062, 1170, 2317, 1293, 1169
 5063, 2232, 2167, 1170, 1169
 5064, 1035, 1510, 1015, 1684
 5065, 2055, 1137, 1717, 2056
 5066, 2220,  626,   17,   16
 5067, 1108, 1449, 1105, 1779
 5068, 2220,   16, 1629,  626
 5069, 1433, 1038,  129, 1037
 5070, 2215,  639,  632,  633
 5071, 1450, 1779, 1717, 1139
 5072, 1106, 1108, 1105, 1779
 5073, 2457, 1660, 1779, 2056
 5074, 1452,  633,  627,  634
 5075, 1779, 1660, 2457, 1781
 5076, 1366, 1755, 1248, 2581
 5077, 1455,  634,  628,  635
 5078, 1366, 1248, 1755, 2392
 5079, 1050, 2504,  622, 2612
 5080, 2055, 1366, 1662, 1251
 5081, 2515, 1019, 2486, 1000
 5082, 1540, 1435,  623,  130
 5083, 2403, 2541,  419,   67
 5084, 2224,  139,  140,  636
 5085, 2055, 1137, 1247, 1251
 5086, 2067, 1891, 2497,  974
 5087, 2615, 1003, 1002,  983
 5088, 1782,  345,  359,  358
 5089, 1988,  592,  591,  586
 5090, 2055, 2057, 2385, 2056
 5091, 2323,  834,  853,  833
 5092, 2641,  397,  411,  410
 5093, 2383, 2473, 2101,  805
 5094, 1239, 1248, 1247, 1366
 5095, 1994,  939,  920,  940
 5096, 1559, 2281, 2282, 1557
 5097, 2310,  398,  397,  384
 5098, 1180, 1579, 1225, 1224
 5099, 1683, 1687, 1207, 2528
 5100, 1189, 1282, 2548, 1682
 5101, 2012,  636,  630,  637
 5102, 2637,  137, 2638,  637
 5103, 1189, 1213, 1190, 1986
 5104, 1189, 2548, 1683, 1986
 5105, 1452,  633,  634,  640
 5106, 2110, 1944, 1663, 2461
 5107, 2215,  136,  135,  981
 5108, 2377, 1502, 1663, 2054
 5109, 1944, 1585, 1763, 2037
 5110, 1944, 1763, 2588, 2037
 5111, 2541,  684,   68,   67
 5112, 1486,  641,  634,  635
 5113, 1587, 2134, 1950, 1448
 5114, 1486,  640,  634,  641
 5115, 1665, 1765, 1794, 1764
 5116, 1040, 1043, 1268, 1044
 5117, 1944, 1763, 2171, 2588
 5118, 1944, 2171, 1763, 2459
 5119, 2515,  134, 1019, 1000
 5120, 1480, 1891, 1294, 2067
 5121, 1304, 1040, 2035, 1305
 5122, 1891,  955, 2497,  974
 5123, 1203, 1173, 1400, 1924
 5124, 1121, 1925, 2194, 1122
 5125, 2215,  639,  135,  638
 5126, 2406,  399,  385,  386
 5127, 1175, 1451, 1400, 1398
 5128, 1260,  822,  821,  802
 5129, 1401, 1400, 1704, 1399
 5130, 1399, 1400, 1704, 1703
 5131, 1144, 1924, 1704, 1990
 5132, 1117, 1402, 1122, 1569
 5133, 2515,  134,  639,  640
 5134, 1173, 1402, 1925, 1121
 5135, 1256, 1259, 1258, 1266
 5136, 1262, 1614, 1916, 1442
 5137, 2638,  138,  636,  137
 5138, 1256, 1262, 1261, 1442
 5139, 1257, 2180, 2384, 2501
 5140, 1855, 2384, 2101, 2276
 5141, 1257, 1258, 1259, 2629
 5142, 2637,  137,  637,  136
 5143, 1825, 1561, 2435, 1673
 5144, 1561, 2435, 1673,  390
 5145, 1561, 2435,  390, 1824
 5146, 1407, 1560, 1075, 1406
 5147, 2215,  135, 1000,  981
 5148, 1561, 1792, 1406, 1560
 5149, 1561, 1560, 1824, 1792
 5150, 1434,  133,  640,  641
 5151, 1595, 1602, 1598, 2032
 5152, 1595, 1643, 1576, 1216
 5153, 1752, 1294, 1798, 2428
 5154, 1434,  134,  640,  133
 5155, 1618, 1562, 1985, 1620
 5156, 1410, 1409, 1562, 1999
 5157, 1408, 1404, 1409, 1778
 5158, 1770, 1408, 1772, 1771
 5159, 1052, 1054, 1055, 1075
 5160, 1067, 1525, 1618, 1524
 5161, 1411, 1409, 1404, 2161
 5162, 1622,  921,  920,  901
 5163, 2547,  842,  843,  862
 5164, 1113, 1059, 1241, 1240
 5165, 2101,  713,  719,  712
 5166, 2609, 2421,  316,  315
 5167, 1817,  706,  705,  699
 5168, 2642, 2524,  644,  643
 5169, 2437,  695,  156,  157
 5170, 2643,  143,  642,  142
 5171, 1057, 1061, 1065, 1060
 5172, 1724, 1307, 2102, 1797
 5173, 1247, 2581, 1366, 1248
 5174, 2643,  643,  642,  143
 5175, 1247, 1250, 1805, 1806
 5176, 2167, 2317,  919,  900
 5177, 2490,  156,  695,  689
 5178, 2644,  642,  643,  648
 5179, 1273, 1806, 1250, 1803
 5180, 1273, 1275, 1215, 1808
 5181, 1716, 2006, 2640, 2538
 5182, 2117,  358,  357,  344
 5183, 1755, 2581, 1250, 1248
 5184, 2289,  596,  591,  597
 5185, 2540, 2541, 2403,  678
 5186, 2123,  840,  859,  839
 5187, 1754, 1283, 1250, 1755
 5188, 1825, 1828, 2154, 1369
 5189, 2641,  411, 2548, 2512
 5190, 2329, 1184, 2645, 1219
 5191, 1211, 1184, 2329, 1219
 5192, 2015, 2635, 1983, 2634
 5193, 2540, 2541,  406,  419
 5194, 2524,  643,  143,  144
 5195, 1523, 2635, 2329, 2255
 5196, 2012,  637,  630,  631
 5197, 1482, 1481, 1766, 2019
 5198, 1482, 1981, 2020, 1750
 5199, 2524,  644,  643,  144
 5200, 1269, 1277, 1272, 1271
 5201, 1480, 1892, 1484, 2067
 5202, 1482, 1892, 2020, 1485
 5203, 2014,  371,  384,  370
 5204, 2557,  419,   65,   66
 5205, 2536, 1194,  645,  651
 5206, 2646,  689,  682,  683
 5207, 2492,  827,  808,  828
 5208, 1946, 2103, 1096, 1903
 5209, 1249, 1367, 1239, 1140
 5210, 2544,  410,  409,  396
 5211, 1661, 1660, 2054, 2056
 5212, 1240, 1662, 1366, 1251
 5213, 2057, 1366, 2392, 1662
 5214, 1661, 1717, 1660, 2056
 5215, 1825, 1917, 1673, 2435
 5216, 1200, 2605, 1201, 1199
 5217, 1827, 1301, 1826, 2440
 5218, 2099, 2440, 1826, 1301
 5219, 2525,  145,  645,  644
 5220, 1041, 2497, 1042, 1305
 5221, 1369, 1364, 1302, 1593
 5222, 1070, 1511, 1295, 1365
 5223, 1799, 1829, 1753, 1830
 5224, 1301, 2099, 1308, 1826
 5225, 1174, 1304, 1040, 1308
 5226, 1045, 1481, 1753, 1737
 5227, 2647,  146,  645,  145
 5228, 2497, 1295, 1041, 1294
 5229, 1294, 2497, 2428,  994
 5230, 2604,  693,  686,  687
 5231, 2428, 1798,  975, 2497
 5232, 1294, 2067,  994, 1995
 5233, 2647,  646,  645,  146
 5234, 1488, 1736, 1737, 1734
 5235, 1578, 2406, 1812, 2521
 5236, 1735,  578, 1739,  572
 5237, 1916,  841,  860,  840
 5238, 1998, 2483,  697,  698
 5239, 1735,  573, 2626, 1736
 5240, 2526,  653, 2648,  149
 5241, 2537,  653,  652,  647
 5242, 1735, 2626,  573,  572
 5243, 1735,  572, 1739, 2431
 5244, 1735, 1487, 2431, 1739
 5245, 1887, 1889, 1955, 2156
 5246, 1858, 2543, 1886, 1926
 5247, 2648,  149,  653,  148
 5248, 2162,  147,  647,  646
 5249, 1281, 1716, 2007, 1192
 5250, 1858, 1886, 2622, 2007
 5251, 1858, 1682, 2511, 2544
 5252, 1858, 2544, 1282, 1682
 5253, 2377,  970, 2110,  989
 5254, 2006, 2264,  664, 2538
 5255, 2631, 2649,  951, 2056
 5256, 2631, 2056,  951,  970
 5257, 2110, 2631, 2054, 2457
 5258, 2491,  695,  688,  689
 5259, 2631, 2649, 2056, 2339
 5260, 2631, 2054, 2457, 2056
 5261, 2163,  148,  647,   12
 5262, 2017, 1503, 2520, 1606
 5263, 1862, 1547, 1861, 2017
 5264, 1663, 1501, 2451, 2111
 5265, 2377, 1502, 2054, 2053
 5266, 1089, 1503, 1977, 1367
 5267, 1500, 1502, 1501, 2451
 5268, 2644,  648,  643,  649
 5269, 2428,  995,  994,  975
 5270, 1637,  667,  661,  662
 5271, 2377, 1502, 2053, 2266
 5272, 1945, 1903, 1949, 1946
 5273, 1885, 1198, 1846, 1857
 5274, 1153, 1163, 1361, 1164
 5275, 2007,  662,  663,  668
 5276, 1187, 2482, 1195, 1192
 5277, 1222, 1221, 1623, 1920
 5278, 2511, 2513, 2558,  422
 5279, 1887, 2156, 1955, 1927
 5280, 1907, 2562, 1714, 1280
 5281, 2269,  421,  420,  407
 5282, 1921, 2464, 2296, 2462
 5283, 2227, 1840, 2226, 1884
 5284, 2526,  150,  149,  682
 5285, 1200, 1201, 2491, 2296
 5286, 1157, 1907, 1714, 1280
 5287, 2263, 2526,  150,  659
 5288, 2478,  670, 2006, 2481
 5289, 1181, 1284, 1581, 1282
 5290, 1187, 1196, 1553, 1202
 5291, 2540, 2156, 2557,  419
 5292, 2482, 1194, 1195, 2640
 5293, 2648,  653,  647,  148
 5294, 1182, 1195, 1716, 1192
 5295, 2261, 2263,  151,  665
 5296, 1955,  407,  406,  393
 5297, 2642,  649,  643,  644
 5298, 1986,  666,  661,  667
 5299, 1166, 1195, 1198, 1716
 5300,  655, 1188,  654,  660
 5301, 2534,  844,  863,  843
 5302, 1187, 1195, 2482, 1552
 5303, 1399, 1710, 2366, 1712
 5304, 1960, 1768, 1565, 1607
 5305, 1188,  654,  649,  655
 5306, 1552,  655,  650,  656
 5307, 2130,  958,  978,  977
 5308, 1552,  649,  650,  655
 5309, 1983, 1530, 2015, 1082
 5310, 2160,  383,  396,  382
 5311, 1338, 1394, 1395, 1339
 5312, 1335, 1928, 1337, 1915
 5313, 1637,  668,  667,  662
 5314, 1884, 1154, 1858, 2227
 5315, 2541,  678,  684,   67
 5316, 1879, 1128, 1476, 1609
 5317, 1077, 1210, 1079, 1078
 5318, 2006, 2479,  669,  670
 5319, 1123, 1309, 1125, 1124
 5320, 1847,  699,  692,  693
 5321, 2156, 1888, 2540, 2557
 5322, 2481,  664,  665,  670
 5323, 1128, 1906,  489, 1126
 5324, 2539,  658,  653,  659
 5325, 1141, 1245, 1241, 1248
 5326, 1937,  686,  692,  685
 5327, 1938,  685,  691,  684
 5328, 2264,  664,  659,  665
 5329, 1754, 1757, 1755, 1505
 5330, 1141, 1245, 1142, 1307
 5331, 1494, 1796, 1422, 1975
 5332, 1460, 1679, 1588, 2319
 5333, 1463, 1464, 1462, 1726
 5334, 2006,  663,  664,  669
 5335,  419,   68, 2541,  406
 5336, 1147, 1140, 1131, 1723
 5337, 1282, 1284, 2650, 2227
 5338, 1715, 1154, 1884, 1163
 5339, 1862, 2008, 2252, 2628
 5340, 1212,   19,    2,  660
 5341, 1977, 1249, 1367, 2449
 5342, 1731,   27,  619,   28
 5343,   67,   68, 2541,  419
 5344, 1975, 1422, 1287, 1796
 5345, 1191,  655,  661,  660
 5346, 1344, 1350, 1345, 2101
 5347, 2511, 2544,  410,  409
 5348, 2640,  663,  662,  657
 5349, 1885, 1890, 1958, 1163
 5350, 2512, 2546, 2513,  423
 5351, 2482,  661,  656,  662
 5352, 2480, 2269,  420, 2557
 5353, 2540, 2403, 2404,  678
 5354, 2543,  422,  421,  408
 5355, 2085, 2061, 2018, 2051
 5356, 1280, 1918, 1623, 2178
 5357, 2538,  663,  658,  664
 5358, 2007,  669,  668,  663
 5359, 2262,  680,  686,  679
 5360, 2074, 1201, 1355, 2507
 5361, 2074, 1201, 1397, 2633
 5362, 2538,  663,  657,  658
 5363, 1616,   69,  393,  406
 5364, 2478,  677,  676,  671
 5365, 1344, 2274, 2101, 2473
 5366, 1570, 2030, 1644, 1767
 5367, 1732, 2072, 1659, 1658
 5368, 2263,  665,  150,  151
 5369, 1382, 2000, 2208, 2120
 5370, 2479,  675,  669,  670
 5371, 2072, 1659, 1658, 2347
 5372,  407,  406,  420, 2269
 5373, 2403,  153,   66,  677
 5374, 2072, 1644, 2064, 1728
 5375, 2118,  246, 2352, 1669
 5376, 2072, 1659, 2347, 2316
 5377, 1212,  660,  666,   19
 5378, 1266, 1258, 1256, 1260
 5379, 2540, 1616, 1938, 2156
 5380, 1265, 1850, 1257, 1259
 5381, 2550,   20,   19,  666
 5382, 2521,  386, 1699,  399
 5383, 1258,  724, 2180,  730
 5384, 2386,  882,  862,  863
 5385,  729, 1258, 1542, 1541
 5386, 1258, 1266, 1541, 2651
 5387, 2622,  669,  674,  668
 5388, 1926,  395,  409,  408
 5389, 1731,   27, 2456,  618
 5390, 2342, 2364, 1899, 2033
 5391, 1720, 2342, 1589, 1908
 5392, 2006,  669,  664,  670
 5393, 1681, 2031, 2033, 1869
 5394, 2481,  670,  665,  671
 5395, 2342,  264, 2358, 2364
 5396, 2480, 2543, 2558,  421
 5397, 1193, 2296, 1196, 1202
 5398, 2403, 2557,   66,  419
 5399, 2264,  659,  664,  658
 5400, 2296, 2652, 2491, 2611
 5401, 2086, 2008, 2165, 2121
 5402, 1194, 2611, 1193, 1197
 5403, 2611, 2536, 1197, 1194
 5404, 2647, 2652, 2653, 2611
 5405, 2261,  152,  680,  679
 5406, 2478,  670,  671,  676
 5407, 1669, 1133, 1086, 1357
 5408, 2611, 2162, 2536, 2647
 5409, 2652, 2296, 2653, 2611
 5410, 2404,  677,  671,  152
 5411,  828, 2652, 2296, 2653
 5412, 2611, 2537, 1197, 2536
 5413, 2403,  153,    7,   66
 5414, 2512,  424,  423,  410
 5415, 2546,   61,   62,  423
 5416, 2512,  424,  410,  411
 5417, 2550,  672,   20,  666
 5418, 1221, 1280, 1623, 1621
 5419, 1224, 1221, 1219, 2527
 5420, 1221, 1219, 2527, 2654
 5421, 1221, 1219, 2654, 2655
 5422, 1179, 1183, 1188, 2238
 5423, 1920, 1221, 2656, 1553
 5424, 2549, 2550,  666,  672
 5425, 2552,   61, 2546,  424
 5426, 2490,  695, 2491,  689
 5427, 2511,  409,  423,  422
 5428, 2513,  674,   62,  673
 5429, 1203, 2035, 1585, 1106
 5430, 2637, 2638,  962, 2013
 5431, 2558, 2622,  675,  674
 5432, 1399, 1708, 1401, 2098
 5433, 1704, 1399, 1708, 1401
 5434, 2622,  675,  674,  669
 5435, 2479,  670,  676,  675
 5436, 2558,  675,   63,  674
 5437, 2558, 2543,  422,  421
 5438, 1175, 1399, 1563, 1398
 5439, 2480,  420, 2269,  421
 5440, 2480,  676,   64,  675
 5441, 1175, 1173, 1172, 1401
 5442, 1203, 1304, 1924, 1268
 5443, 1565, 1110, 1563, 1564
 5444, 1703, 1563, 1399, 1398
 5445, 1422, 1252, 1796, 1797
 5446, 2404,  153,  677,  152
 5447, 1955,  394, 1927,  407
 5448, 2557,  676,  677,   65
 5449, 2540, 2404,  679,  678
 5450, 1197, 1194,  651,  657
 5451, 2611, 1196, 2296, 2653
 5452, 2479,  669, 2622, 2007
 5453, 2403, 2557,  677,   66
 5454, 2611, 2536, 1196, 2653
 5455, 1197, 2537, 2539,  652
 5456, 1197, 2536,  651, 1194
 5457, 1197, 1194,  657, 2640
 5458, 1195, 1194, 1197, 2640
 5459, 2538, 2640, 1198, 1197
 5460, 1200, 2611, 2491, 2537
 5461, 1039, 1047, 1041, 1300
 5462, 2263,  665,  659,  150
 5463, 1616, 2541,  406, 2540
 5464, 2540, 1939,  685,  679
 5465,  678,  153, 2403, 2404
 5466, 1830, 1737, 1829, 1753
 5467, 1365, 1798, 2268, 1511
 5468, 1171, 1169, 1178, 1168
 5469, 2526,  149,  659,  653
 5470, 2261,  152,  151,  680
 5471, 2163,  147,   12,  647
 5472, 2539,  658,  652,  653
 5473, 2261, 2262, 1939,  679
 5474, 1889, 2001, 1890, 1955
 5475, 2540,  678,  679,  685
 5476, 2536,  651,  645,  646
 5477, 1040, 1301, 1308, 1826
 5478, 2537,  652,  646,  647
 5479, 1197,  652,  657,  651
 5480, 1197,  658,  657,  652
 5481, 1082, 1821, 1291, 1983
 5482, 2262,  687,  680,  681
 5483, 2535,  688,  681,  682
 5484, 1302, 1295, 1303, 1365
 5485, 1821, 1983, 1785, 1291
 5486, 2162,  147,  646,  146
 5487, 2153, 2648, 2163,  683
 5488, 2015, 1082, 1080, 1078
 5489, 1364, 1080, 1593, 1068
 5490, 1821, 1365, 2268, 1511
 5491, 1070, 1365, 1821, 1511
 5492, 1618, 1209, 1999, 1619
 5493, 1618, 1800, 1410, 1770
 5494, 1209, 1207, 2222, 1984
 5495, 1694, 1695, 1700, 1693
 5496, 1789, 1441, 1293, 1842
 5497, 2163,  154,  683,  148
 5498, 2153,  810,  809,  155
 5499, 1937, 2604,  692,  686
 5500, 1955,  407,  393,  394
 5501, 2478, 2557,  676,  677
 5502, 1171, 1565, 1960, 1168
 5503, 2535,  688,  687,  681
 5504, 1144, 1146, 2290, 1443
 5505,  696, 2373,  393,   70
 5506, 1791, 2458, 1145, 1951
 5507, 1081, 1593, 1577, 1594
 5508, 2155,  381,  382,  395
 5509, 2510,  674, 2622, 2513
 5510, 1954, 2483,  697, 1998
 5511, 1839, 1432, 2025, 2117
 5512, 2262,  687,  686,  680
 5513, 1197, 2539,  658,  652
 5514, 1303, 1923, 1308, 1368
 5515, 2462,  845,  846,  865
 5516, 1882, 2264, 2006, 2538
 5517, 2462, 2464,  846,  845
 5518,  941, 2527,  922, 1993
 5519, 1109, 1176, 1288, 1564
 5520, 1882, 2262, 1937, 1939
 5521, 2282, 2417, 1266, 1557
 5522, 1266, 2651, 2445, 1541
 5523, 1194,  656,  650,  651
 5524, 2604,  693,  692,  686
 5525, 2540,  678,  684, 2541
 5526, 1266, 2417, 1933, 1557
 5527, 2180,  731,  724,  725
 5528, 2525,  145,  644,  144
 5529, 1555,  837,  857,  856
 5530, 1266, 1933, 2417, 2425
 5531, 2270,  806,  826,  825
 5532, 1541, 1259, 1539, 1266
 5533, 2464,  827,  846,  826
 5534, 1109, 1167, 1814, 1582
 5535, 2396, 1798, 2268, 1365
 5536, 2490,  689,  155,  156
 5537, 2160,  395,  382,  396
 5538, 1363, 1369, 1370, 1828
 5539, 2080, 1370, 1593, 1369
 5540, 2153,  689,  683,  155
 5541, 1177, 1288, 1923, 1594
 5542, 1144, 1145, 1158, 1159
 5543, 1178, 2195, 1568, 2251
 5544, 2641,  397,  398,  411
 5545, 1938,  691,  690,  684
 5546, 1046, 1859, 1827, 1895
 5547, 1828, 1363, 1799, 1362
 5548, 2403, 2541,   67,  678
 5549, 1737, 1736, 1481, 1905
 5550, 1270, 1488, 1481, 1045
 5551, 2160,  396, 1926,  395
 5552, 2433,  380,  381,  394
 5553, 1777,  346,  332,  333
 5554, 2637, 2638,  137,  962
 5555, 2035, 1042, 1891, 2195
 5556, 1998,  698,  697,  691
 5557, 1780, 2035, 2195, 1305
 5558, 2510,  673, 2549,  667
 5559, 2482,  662,  656,  657
 5560, 2274, 2276, 2383,  824
 5561, 2473,  806,  805,  159
 5562, 2437, 2506,  701, 2499
 5563, 2035, 2036, 1585, 2382
 5564, 1193, 1201, 1200, 2296
 5565, 1777,  332,  346,  345
 5566, 1891, 2035, 1484, 1042
 5567, 2042,  835, 2044,  836
 5568, 1203, 1268, 1924, 1144
 5569, 2296,  847, 1919,  846
 5570, 2382, 2035, 1780, 1106
 5571, 1749, 1045, 1481, 1753
 5572, 1355,  825,  826,  845
 5573, 2633,  699,  693,  700
 5574, 1175, 1121, 1173, 1400
 5575, 1738, 1895, 2484, 1896
 5576, 2233,  880,  881,  900
 5577, 1356, 2158, 2274,  824
 5578, 2068, 2441, 2444, 1827
 5579, 2517,  703, 2430,  702
 5580, 1668,  245,  258,  244
 5581, 1272, 1277, 1764, 1271
 5582, 1401, 1924, 1826, 1991
 5583, 1924, 1586, 1826, 1158
 5584, 1039, 1294, 1480, 1042
 5585, 1370, 1301, 2495, 2099
 5586, 1095, 1094, 1090, 1093
 5587, 1954, 1955, 1616,  393
 5588, 2373, 1954, 2517,  696
 5589, 1171, 1178, 1174, 1568
 5590, 2068, 2440, 1826, 1158
 5591, 1890, 2001, 1885, 1958
 5592, 1551, 2051, 1898, 2016
 5593, 1088, 1092, 1086, 1357
 5594, 2474, 2373,   71,  367
 5595,  702, 2517, 2373, 2474
 5596, 2076,  368,  369,  382
 5597, 1884, 1154, 1840, 1163
 5598, 1088, 1551, 2000, 2085
 5599, 1088, 2000, 2103, 1092
 5600, 1498, 1099, 1903, 1664
 5601, 2155,  381, 2076,  382
 5602, 2483,  698,  704,  697
 5603, 1998,  692,  698,  691
 5604, 2637, 2215, 1631,  981
 5605, 1903, 2502, 1794, 1949
 5606, 2103, 2412, 1946, 2416
 5607, 2274,  805,  806,  825
 5608, 1484, 2037, 1585, 2036
 5609, 2429,  382,  369,  383
 5610, 2506,  707,  706,  700
 5611, 1269, 1271, 1267, 1268
 5612, 1763, 2459, 2361, 1764
 5613, 1274,  874,  854,  855
 5614, 2437,  808,  807,  157
 5615, 2217,  161,  160,  804
 5616, 1782, 2117,  358,  371
 5617, 1945, 1948, 1947, 2469
 5618, 2103, 2416, 2391, 2412
 5619, 1950, 2104, 1946, 2242
 5620, 2104, 2416, 1946, 2242
 5621, 2170, 1501, 1498, 1663
 5622, 1951,  300, 2242, 1948
 5623, 1945, 1951, 1791, 1790
 5624, 1160, 1145, 2442, 2458
 5625, 1160, 2458, 2614, 1145
 5626, 2274,  824,  805,  825
 5627, 1160, 1143,  311, 1159
 5628, 1160,  311, 2614,  312
 5629, 2554, 1092, 2000, 1357
 5630, 1584,  890,  889,  870
 5631, 2118,  247, 2554, 2352
 5632, 2554, 2389,  261, 2354
 5633, 2554, 2000, 2368, 2120
 5634, 2476,  709,  715,  708
 5635, 2488,  341, 2475,   73
 5636, 2477,  367,  354,  368
 5637, 2081, 2343, 1849, 1685
 5638, 2554, 2368,  248, 2120
 5639, 1093, 1090, 1092, 1087
 5640, 2517,  703,  696,  697
 5641, 1973, 2344, 2430, 2124
 5642, 2488, 1685, 2463, 2148
 5643, 1504, 1583, 2152, 2321
 5644, 1503, 2449, 1977, 1367
 5645, 2474,   72,  354,  367
 5646, 1503, 1977, 2449, 1606
 5647, 1862, 1860, 2165, 2616
 5648, 2344, 2474,  354, 2477
 5649, 2082,  343,  342,  329
 5650, 2609,  328,  315,  329
 5651, 2430, 1820,  709, 1973
 5652, 2345,  369,  355,  356
 5653, 1503, 2520, 1606, 2449
 5654, 2158,  824,  843,  823
 5655, 2445, 2651, 2177,  737
 5656, 1990, 1144, 1159, 1704
 5657, 2383,  804,  160,  805
 5658, 2547,  861,  842,  862
 5659, 2499,  707,  701,  158
 5660,  706,  712, 1817,  705
 5661, 2168, 1916, 1442,  841
 5662, 2090, 2088, 2192, 2505
 5663, 1466, 1468, 1743, 1742
 5664, 2177,  162,  163,  731
 5665, 2473,  707,  158,  159
 5666, 1818,  717,  711,  718
 5667, 1494, 2305, 1974, 1975
 5668, 2089, 2192,  205, 2026
 5669, 1870, 2088, 1880, 1743
 5670, 2361, 1028, 1009, 1029
 5671, 2239,  710, 2438, 1820
 5672, 1231,  877,  876,  857
 5673, 1272, 1145, 1269, 1146
 5674, 2092, 2595, 2338, 2367
 5675, 2555,  945, 2091,  944
 5676, 1851, 2087, 1852, 2091
 5677, 2477,  354,  355,  368
 5678, 1126, 2595, 2087, 2204
 5679, 2555,  484, 2595, 1126
 5680, 2087, 2091, 2197, 1852
 5681,  356, 2095, 2345,  369
 5682, 1125, 1853, 2197, 1316
 5683, 1818,  718, 2100,  717
 5684, 1125, 2087, 2555, 2197
 5685, 1125, 1126, 1124, 2582
 5686, 2014, 2226,  384, 2310
 5687, 1123, 1125, 1309, 1853
 5688, 1310, 1466, 1746, 1135
 5689, 1309, 1314, 1312, 1317
 5690, 1313, 1124,  483,  477
 5691, 2423, 2489,   74,  328
 5692, 1314,  476, 2096,  470
 5693, 1128,  482, 1313,  483
 5694, 1944, 1781, 2037, 2457
 5695, 2335,  331,  318,  332
 5696, 1588,  465, 1529,  471
 5697, 1598, 2034, 1899, 1900
 5698, 2176,  161,  803,  162
 5699, 2060,  307,  308,  321
 5700, 2072, 2030, 1644, 1570
 5701, 2618,  557,  551,  117
 5702, 1377, 1643, 1570, 1380
 5703, 1595, 1576, 1597, 1603
 5704, 2281,  818,  819,  838
 5705, 2425,  820,  801,  821
 5706, 2335,  318,  319,  332
 5707, 2473,  713,  707,  159
 5708, 2032, 1598, 1595, 1596
 5709, 1575, 1573, 2542, 1574
 5710, 1596, 2359, 2034, 2073
 5711, 2063,  319,  320,  333
 5712, 1572, 1597, 1573, 1598
 5713, 2383, 2276, 2101, 2384
 5714, 1663, 1660, 2457, 2054
 5715, 1598, 1899, 1877, 1900
 5716, 2040,  836,  817,  837
 5717, 1597, 1598, 1602, 1876
 5718, 1602, 1598, 1877, 1876
 5719, 1741, 2572, 2574, 2560
 5720, 2126,   75,   76,  315
 5721, 2609, 2423, 2488, 2463
 5722, 2572, 2563, 1324, 1331
 5723, 2343,  342,  355,  341
 5724, 1331, 1319, 1324, 2572
 5725, 1979, 2587, 1567, 1652
 5726, 2393,  330,  316,  317
 5727, 2239,  710,  711,  717
 5728, 1980, 2587, 2141,  850
 5729, 1979, 2141, 1980, 2587
 5730, 1372, 1378, 1871, 1567
 5731,  343, 2081,  342, 2345
 5732, 1378, 1980, 1592, 2302
 5733, 2101, 2384, 2100,  718
 5734,  341,  328, 2489, 2488
 5735, 2463,  721,  727,  720
 5736, 1445,  320, 2063,  319
 5737, 1328, 1980, 2223, 1592
 5738, 1188, 1191,  660,  655
 5739, 2383,  719,  713,  160
 5740, 2499,  158,  807,  806
 5741, 2239, 2149,  717, 1850
 5742, 1706, 1707, 2393,  303
 5743, 2624,  551,  556,  550
 5744, 2041,  798,  799,  818
 5745, 1188,  649, 2642, 1552
 5746, 2445,  737, 2447,  743
 5747, 1188, 2644,  648, 2238
 5748, 2101, 2384,  718,  719
 5749, 1189, 1191, 1986, 1190
 5750, 1275,  875,  874,  855
 5751, 2127,  755, 2129,  166
 5752, 1588,  465,  464,  458
 5753, 1191, 1192,  661,  655
 5754, 2149,  722,  716,  723
 5755, 1183, 2644, 1188, 2238
 5756,  655, 2482, 1552, 1188
 5757, 1183, 1188, 2644, 1553
 5758, 2657,  800,  799,  165
 5759, 1188, 1553, 1552, 2642
 5760, 1179, 1220, 2259, 1190
 5761, 2488,  714,  721,  720
 5762, 2488, 2438,  721,  715
 5763, 1538, 1685, 2148, 2105
 5764, 2609,  315,  316,  329
 5765, 2358, 1653,  276,  277
 5766, 1706, 2609, 2421, 2393
 5767, 1706, 2463, 2421, 2609
 5768, 1418, 1347, 1431, 1346
 5769, 2488,  714,  715,  721
 5770, 2149,  716,  717,  723
 5771, 2149, 2239,  717,  716
 5772, 1639,  727,  733,  726
 5773, 2488, 2148, 2463,  721
 5774, 2629,  718,  724,  717
 5775, 1617, 2109, 1430, 2434
 5776, 2421,  303,  316,  302
 5777, 2105,  722,  728,  721
 5778, 1542,  722,  723,  729
 5779, 1542,  728,  722,  729
 5780, 2488,   73, 2475,  714
 5781, 1431, 1346, 1849, 2094
 5782, 2100, 2629,  718, 2384
 5783, 2447,  164,  801,  800
 5784, 2488, 1685, 2438, 2343
 5785, 1445,  320,  306,  307
 5786, 1806,  913, 1971, 2448
 5787, 2129, 2658, 2657,  749
 5788, 1849, 1685, 2438, 2148
 5789, 2447,  743,  737,  164
 5790, 2176,  161, 2217,  803
 5791, 2465,  319,  305,  306
 5792, 2465,  305,  319,  318
 5793, 2044,  836,  835,  816
 5794, 2651,  737,  730,  731
 5795, 2176, 2180, 2651, 1260
 5796, 1992, 1841, 1842, 1292
 5797, 1582, 1293, 1842, 1292
 5798, 2384,  718,  719,  725
 5799, 1364, 1365, 1303, 1291
 5800, 2383,  160, 2217,  719
 5801, 1789, 1293, 1292, 1842
 5802, 1992, 1789, 1842, 1996
 5803, 1225, 1280, 1221, 1621
 5804, 1718, 1784, 1577, 1700
 5805, 1290, 1785, 1787, 1292
 5806, 1292, 1983, 1291, 1785
 5807, 1078, 1220, 1211, 1224
 5808, 1180, 1225, 1155, 1280
 5809, 1183, 1184, 2655, 2260
 5810,  727, 1640,  734, 2105
 5811, 2548, 2551, 2545, 2528
 5812, 1683, 1207, 2550, 2551
 5813,  276, 1720, 2358, 2395
 5814, 2105, 1531, 1542, 1538
 5815, 1683, 2528, 1207, 2551
 5816, 1211, 1524, 2329, 2010
 5817, 1418, 1457, 1431, 1432
 5818, 2463,  720,  727,  726
 5819, 1210, 1687, 1696, 1207
 5820, 1696, 1695, 1699, 2409
 5821, 2394,  304,  318,  317
 5822, 1720,  745,  738,  739
 5823, 1581, 1284, 2408, 1282
 5824, 1258,  729,  723,  730
 5825, 2082,  329, 2393,  330
 5826, 1531,  734,  735,  741
 5827, 2629,  724,  723,  717
 5828, 1479, 1555, 1275, 2400
 5829, 2548, 2408, 1687, 2528
 5830, 1998, 2001, 1954, 2483
 5831, 1531, 1640, 2105,  734
 5832,  697, 1998,  691, 1954
 5833, 2659,  307,  306,  293
 5834, 2517, 2483,  697, 1954
 5835, 1885, 2001, 1889, 1846
 5836, 2659,  307,  293,  294
 5837, 2280,  742,  741,  735
 5838, 1769, 2401, 1866, 1865
 5839, 1954, 2517, 2483, 2001
 5840, 2001, 1958, 1890, 2433
 5841, 1845, 1958, 2001, 2483
 5842, 2501,  804,  823,  803
 5843, 1153, 1361, 1166, 1165
 5844, 1782, 2228, 1812,  359
 5845, 1167, 1152, 1164, 1814
 5846, 1083, 1582, 1813, 1814
 5847, 1541,  735,  729,  736
 5848, 2180, 2384,  725,  724
 5849, 1155, 1154, 1152, 1284
 5850, 2415,  818,  799,  819
 5851, 2177,  802,  801,  163
 5852, 2395,   78,  744,  750
 5853, 1157, 1225, 1907, 1280
 5854, 1997, 1907, 2178, 1967
 5855, 1840, 1458, 1163, 1164
 5856, 2364, 2358, 2395,  263
 5857, 2659,  306, 2151,  293
 5858, 2637, 2638, 2013, 1185
 5859, 1639,  726,  733,  732
 5860, 1765, 2050, 2049, 2431
 5861, 1521, 1070, 1363, 1066
 5862, 1686,  304,  290,  291
 5863, 1513, 1511, 2130, 1514
 5864, 1302, 1047, 1295, 1070
 5865, 2291, 2614, 2241, 1950
 5866, 1791, 1790, 1951, 1145
 5867, 1555, 2439, 1275,  856
 5868,   79,  750, 2395,  263
 5869,  734, 2105,  728,  727
 5870, 1640,  740,  739,  733
 5871, 2150,  292,  305,  291
 5872, 1487, 1764, 2626, 1765
 5873, 2415, 2129, 2658, 2657
 5874, 1665, 1764, 1666, 1272
 5875, 2651,  737,  736,  730
 5876, 2103, 2414, 1946, 2412
 5877, 1765, 2431, 1487, 2050
 5878, 1794, 1764, 2466, 2398
 5879, 1815, 1577, 1813, 1812
 5880, 1577, 1578, 1700, 1784
 5881, 1577, 2225, 1578, 1812
 5882, 2041, 2127, 2424, 2128
 5883, 1914,  821,  822,  841
 5884, 2417,  840,  839,  820
 5885, 2349,  549, 2016, 2066
 5886, 1083, 1813, 1811, 1814
 5887, 2279, 1599, 2280,  741
 5888, 1284, 2408, 1282, 2650
 5889, 1581, 1578, 1695, 2409
 5890, 1578, 1695, 1700, 1784
 5891, 2177,  737,  731,  163
 5892, 1866,  294,  280,  281
 5893, 2407,  282,  268,  269
 5894, 1811, 1812, 1578, 2406
 5895, 1578, 1695, 2409, 2521
 5896, 1998, 2001, 1845, 1846
 5897, 1890, 2155, 2433, 2076
 5898, 2356,  762,  237,   81
 5899, 1884, 2160, 1890, 2429
 5900,  732, 1639, 1640,  733
 5901, 2006, 1716, 1857, 2538
 5902, 1720,  745,  744,  738
 5903,  732, 1417,  738, 1639
 5904, 2342,  277, 2358,  264
 5905, 2376,   79,   80,  263
 5906, 2364,  263,  250,  264
 5907, 1240, 1717, 1662, 1251
 5908, 1686,  291,  290,  277
 5909, 1634,  289,   78,  276
 5910, 1325, 1087, 1094, 1093
 5911, 1976, 1249, 1977, 1506
 5912, 1503, 1367, 1662, 2449
 5913, 2116,  279,  292,  278
 5914, 1258, 2629,  724,  723
 5915, 1640,  734,  740,  733
 5916, 1686, 2116, 2150,  291
 5917, 1325, 1242, 1147, 1723
 5918, 1275, 1806, 1803,  874
 5919, 1602, 1603, 1604, 1595
 5920, 1604, 1602, 1627, 2418
 5921, 1601, 1873, 1597, 1876
 5922, 2398,  554, 2502,  555
 5923, 2041,  817,  798,  818
 5924, 2129,  166,  165,  799
 5925, 2657,  165,  749,  743
 5926, 2087, 1906, 2204, 1851
 5927, 1910, 2607, 2206, 2660
 5928, 1851, 2093, 2203, 2202
 5929, 2203, 1910, 1909, 1911
 5930, 2445,  743,  742,  736
 5931, 2447,  737,  163,  164
 5932, 1910, 2607, 1911, 2206
 5933, 1909, 2204, 1851, 2203
 5934, 1910, 2660, 2206, 2615
 5935, 2129,  166,  799,  798
 5936, 1860, 1835, 1910, 2615
 5937, 1851, 2202, 2203, 2092
 5938, 1474, 1911, 1472, 1909
 5939, 1472, 2602, 2603, 1912
 5940, 1472, 2592, 2602, 1912
 5941, 1381, 1388, 1392, 2328
 5942, 1837, 1472, 1911, 1909
 5943, 2395,   79,   78,  750
 5944, 1720,  739, 1589,  745
 5945, 1879, 1609, 1880, 1128
 5946, 1589,  740,  746,  739
 5947, 2116,  279,  265,  266
 5948,  744, 1720, 1634, 2395
 5949, 1662, 1366, 2392, 1367
 5950, 2043,  837,  856,  836
 5951, 2358, 2364,  264,  263
 5952, 1097, 1546, 1500, 1898
 5953, 1589,  752,  751,  745
 5954, 2055, 1247, 2581, 1366
 5955, 2359,  252,  238,  239
 5956, 1323, 1374, 1633, 1659
 5957, 2315, 2577, 2084, 2337
 5958, 1720, 2358, 2395, 2272
 5959, 2315, 1633, 1574, 1659
 5960, 2357, 2577, 2355, 2084
 5961, 2588, 2461,  990,  991
 5962, 2357, 2542, 1848,  769
 5963, 2029, 1757, 1246, 1279
 5964, 1504, 1756, 1279, 1499
 5965, 1666, 1660, 1449, 1781
 5966, 1239, 1141, 1241, 1248
 5967, 2361, 2231, 2625, 1764
 5968, 2279,  747,  741,  748
 5969, 1878,  765,  764,  758
 5970, 2185,  308,  294,  295
 5971, 1754, 1279, 1499, 1248
 5972, 1738, 2431, 1487, 1739
 5973, 1855, 1856, 2100, 1850
 5974, 2101, 1350, 1345, 1855
 5975, 2168, 1349, 1386, 2547
 5976, 1351, 1353, 1384, 2455
 5977, 2272,  751,  744,  745
 5978,  756, 2376,  250, 2034
 5979,  753,  746,  752, 1901
 5980,  756,  750, 2376, 2034
 5981, 2034,  757,  763,  756
 5982, 1900,  751,  758,  757
 5983, 2443, 2068, 2440, 2441
 5984, 2342, 2272, 1899, 2364
 5985, 2129,  749,  165,  166
 5986, 1345, 2101, 1818, 1344
 5987,  238, 2337,  251, 2359
 5988, 1257, 2158, 1442, 2501
 5989, 1855, 2101, 1818, 1345
 5990, 1614, 2168, 1349, 1386
 5991, 2658,  755,  748,  749
 5992, 2337,  237,  238,  251
 5993, 2356,  250,  251, 2034
 5994, 2034, 2577, 2356,  762
 5995, 1532, 1626, 1628, 1657
 5996, 1565, 1607, 1110, 1101
 5997, 1400, 1398, 1705, 1703
 5998, 1444, 1120, 1483, 1447
 5999, 2055, 2056, 2385, 1137
 6000, 1336, 1339, 1483, 1447
 6001, 2418,  748,  754,  747
 6002, 1444, 1483, 2151, 2465
 6003, 1120, 1446, 1447, 1444
 6004, 1444, 1866, 2151, 1483
 6005, 1444, 1446, 1445, 2060
 6006,  742,  748, 2280,  741
 6007, 1931, 1446, 1444, 2060
 6008, 1769, 1396, 1866, 1444
 6009, 2401, 1866, 2185, 1444
 6010, 1866, 1396, 1483, 1444
 6011, 1874,  766,  772,  765
 6012, 2129,  166,  755,  749
 6013, 1254, 2077, 2004, 2003
 6014, 1900,  757,  756,  750
 6015, 2364,  250,  251,  264
 6016, 1254, 1252, 1724, 1797
 6017, 2342, 1653, 1908, 1720
 6018, 2358, 2395,  263,  276
 6019, 2358,  277,  276,  263
 6020,  212, 2175,  225, 2284
 6021, 1724, 1723, 1517, 2102
 6022, 1120, 1059, 1931, 1769
 6023, 2272,  750,  744,  751
 6024, 1875,  754,  760,  753
 6025, 1269, 1276, 2068, 1145
 6026, 2333,   82,   83,  224
 6027, 1900,  750, 2272,  751
 6028, 1848,  776,  769,  770
 6029, 1983, 1224, 2015, 1993
 6030, 1578, 1700, 1695, 2521
 6031, 1696, 1687, 2528, 1207
 6032, 1878,  759,  765,  758
 6033, 1220, 1211, 1219, 1184
 6034, 1936, 2388, 2107, 1934
 6035, 2127,  167,  755,  166
 6036, 1082, 1292, 1983, 1291
 6037, 2551, 1683, 2548, 2550
 6038, 1511, 1821, 1070, 1513
 6039, 1875,  760,  759,  753
 6040, 1832, 1800, 1560, 1069
 6041, 2128,  760,  754,  761
 6042, 1069, 1832, 1561, 1560
 6043, 1497, 1587, 1666, 1449
 6044, 1618, 1209, 1770, 1999
 6045, 2020, 2179, 2172, 1030
 6046, 1749, 1045, 1480, 1481
 6047, 2388,  773,  766,  767
 6048, 2127,  761,  755,  167
 6049, 1482, 1750, 2020, 1892
 6050, 2020, 2179, 1031, 2069
 6051, 1946, 2412, 2414, 1947
 6052, 2020, 1981, 2069, 1031
 6053, 2034, 2356, 2337,  251
 6054, 2034, 2577,  762,  763
 6055, 1632, 1741, 1748, 1592
 6056, 2284,  225,  212,  226
 6057, 2564,  434,  433,   87
 6058,  782, 1744, 1848,  781
 6059, 2034,  756,  763,  762
 6060, 2181, 2509,  450,  451
 6061, 1376, 1592, 1591, 1378
 6062, 1460, 1461, 1549, 1438
 6063, 2223, 2187, 1980, 2221
 6064, 2324,  815,  816,  835
 6065, 1873,  759,  760,  766
 6066, 1376, 1575, 1632, 1330
 6067,  228,  215, 1728, 1729
 6068, 2073, 2337, 2316,  238
 6069, 1843, 1865, 1253, 2003
 6070, 2071,  226,  227,  240
 6071, 2357,  769,  775,  768
 6072, 2420,  761,  767,  760
 6073, 1903, 1498, 2502, 1898
 6074, 1651,  198, 2174, 1648
 6075, 1745,  777,  776,  770
 6076, 1376, 1632, 1591, 1592
 6077, 1275, 1274,  855,  874
 6078, 2107,  796,  816,  815
 6079, 1873,  765,  759,  766
 6080, 1747, 2542, 1575, 1874
 6081, 1376, 1378, 1591, 1590
 6082, 1412, 1075, 1405, 1052
 6083, 1406, 1810, 1613, 2533
 6084, 1406, 1810, 2533, 2212
 6085, 1406, 1792, 2212, 1793
 6086, 2388, 2107, 2106, 2420
 6087, 2388, 2420, 2106,  767
 6088, 1760, 1771,  416, 1772
 6089, 1075, 1406, 1561, 1810
 6090, 1414, 1513, 1514, 1511
 6091, 1408, 1560, 1760, 1771
 6092, 2140, 2575, 2560, 2198
 6093, 1320, 1647, 1633, 1848
 6094, 2577,  762,  763,  769
 6095, 2575,  436, 2191, 2138
 6096, 2139, 2198, 2336, 2560
 6097, 2143,  764,  770,  763
 6098, 2575,  437, 2138, 2139
 6099, 1872,  764,  765,  771
 6100, 2568, 1635,  446, 2341
 6101, 2568, 1646, 2275, 2468
 6102, 2577,  768,  762,  769
 6103,  770,  764, 2542,  771
 6104, 1490, 2183, 2182,  452
 6105, 2568, 2468,  445, 2182
 6106, 2357, 2315, 2084, 2334
 6107, 1848,  776,  775,  769
 6108, 2568, 1646, 2566, 2275
 6109, 2568,  446, 2182,  445
 6110,  781,  782,  775, 1848
 6111, 2324,  835,  834,  815
 6112, 1576, 1874, 1632, 1575
 6113, 2313,  772,  779,  778
 6114, 2347,  226,  213,  227
 6115, 1747, 1874, 2313,  772
 6116, 1865,  267, 1253,  268
 6117, 2591, 1527, 2590,  467
 6118, 1874,  772,  771,  765
 6119, 1591, 1592, 2556, 2302
 6120, 2333,   83, 2174,  211
 6121, 1218, 2029, 1871, 2561
 6122, 1590, 1603, 2325, 2323
 6123, 1218, 1590, 1603, 2325
 6124, 1934,  814, 2556,  813
 6125, 1935,  815,  834,  814
 6126, 2661,  170,  779,  773
 6127, 2416,  287, 2242,  286
 6128, 2073, 2072, 2071, 2316
 6129, 1380, 1871, 1377, 1642
 6130, 2661,  794,  170,  795
 6131, 1378, 1590, 1871, 2636
 6132, 2388,  773,  772,  766
 6133, 1590, 1871, 2636, 2561
 6134, 1479, 2400, 1556, 1555
 6135, 2388, 1934, 2662, 2107
 6136, 1332, 1339, 1336, 1447
 6137, 1115, 1118, 1058, 1120
 6138, 2186, 1748,  813,  794
 6139, 1490, 2341,  447,  446
 6140, 1333, 1740, 1608, 1775
 6141, 1531, 1539, 1340, 1543
 6142, 1848,  782,  776, 1744
 6143, 2357,  768,  775,  774
 6144, 1331,  788,  782,  789
 6145, 1626, 1532, 1600, 1657
 6146, 1373, 1376, 1322, 1575
 6147,  748, 2418, 2039, 2280
 6148, 1499, 1505, 1248, 1506
 6149, 2084, 2175,  225,  211
 6150, 2181, 1654, 1649, 2278
 6151, 1329,  783,  776,  777
 6152, 1161, 2135,  781,  780
 6153, 1338, 1394, 1479, 1395
 6154, 1747,  771,  778,  777
 6155, 2637,  136,  962,  137
 6156, 1532, 1340, 1339, 1478
 6157, 1584, 2498,  890,  871
 6158, 2072, 2347, 1658, 1728
 6159, 2436,  873, 1283, 1757
 6160, 2174,  780,   84,   83
 6161, 1338, 1559, 1557, 1556
 6162, 2139,   91,   92,  437
 6163, 2573,   95,  455,  449
 6164, 2191,  436, 2571, 2138
 6165, 2140,  811,  812,  831
 6166, 2388,  767, 2106, 2662
 6167, 2576,  442,  449,  448
 6168, 1559, 1627, 2405, 1478
 6169, 1201, 1199, 2605, 2633
 6170, 1201, 1397, 2491, 2492
 6171, 2640, 1198, 1197, 1195
 6172, 1193, 1201, 1921, 1199
 6173, 1980, 2302, 1566,  851
 6174, 2580,  830, 2573,   94
 6175, 1201, 2464, 1360, 1355
 6176, 1695, 1077, 1083, 1210
 6177,  198,  212, 1651, 2175
 6178, 2564,  788,   88,  787
 6179, 2568,  440,  446,  439
 6180,  780, 2271, 1162, 1161
 6181, 2565,  433,  432,   86
 6182,  638,  136, 2215, 2637
 6183, 1785, 1292, 1983, 1993
 6184, 2565,  787,   87,  786
 6185, 1179, 1183, 2238, 1184
 6186, 1744, 2567,  781,  782
 6187, 2143, 1878, 1872,  764
 6188, 1414, 1510, 1514, 1413
 6189, 2141,  849,  830,  850
 6190, 1225, 1280, 1623, 2178
 6191, 2571,  436,   89,   90
 6192, 1329,  783,  782,  776
 6193, 2663,  779,  170,  171
 6194, 2191,  442,  435,  436
 6195, 2569,  789,   89,  788
 6196, 1225, 1623, 1280, 1621
 6197, 1577, 1081, 1288, 1085
 6198, 1524, 2015, 2329, 1523
 6199, 1780, 1568, 1305, 2195
 6200, 2560,  784,  785,  791
 6201, 2571,  790,   90,  789
 6202, 2139,  791,  172,    8
 6203, 2336,  172,  791,  785
 6204, 2138,  791,   91,  790
 6205, 1146, 1268, 1144, 1586
 6206,  211,  212,  198, 2175
 6207, 1173, 1400, 1924, 1401
 6208, 2140, 2186, 2187,  812
 6209, 2070, 1780, 2382, 2196
 6210, 1450, 2070, 1136, 2194
 6211, 1203, 1400, 1173, 1121
 6212, 1118, 1336, 1337, 1395
 6213, 1158, 1826, 2068, 1586
 6214, 1046, 1827, 1859, 1301
 6215, 1161, 1186, 2275, 1371
 6216, 1161,  780,  781,  787
 6217, 1161, 2565,  786,  787
 6218, 1753, 1905, 1737, 1481
 6219, 1829, 2332, 1674, 1828
 6220, 2103, 2416, 2389, 2391
 6221, 1648, 2271, 1371,  185
 6222, 2416,  274, 2389, 2391
 6223, 1645, 1651, 1633, 1647
 6224, 2416, 2412, 2242,  287
 6225, 1490,  452, 1491, 2183
 6226, 1196, 1919, 1202, 2296
 6227, 1741, 2312, 2560,  784
 6228, 1331,  783,  789,  782
 6229, 1857, 1883, 1198, 1846
 6230, 2569, 1331,  789,  788
 6231, 1196, 1202, 1919, 1553
 6232, 2567, 2564,  787,  788
 6233, 2574, 1329,  783, 1331
 6234, 1196, 2523, 2653, 2525
 6235, 1801, 1759,  430, 2246
 6236, 1760, 1793, 1801,  417
 6237, 2574,  790,  789,  783
 6238, 2575,  436,  437,  443
 6239, 1801, 1793,  418,  417
 6240,  612, 1793, 2531, 2516
 6241, 2139,  791,    8,   91
 6242, 2336,  171,  172,  785
 6243, 2516, 1801, 1793, 2531
 6244, 2560,  790, 2574,  784
 6245, 2516, 2456, 1801, 2531
 6246, 1801, 2531,  418, 1793
 6247, 2560,  784,  791,  790
 6248, 1801,  431, 2531, 2456
 6249, 1865, 1843, 1062, 2003
 6250, 1246, 2375, 2436, 1757
 6251, 2418, 2041, 2039, 1604
 6252, 2636, 2029, 1459, 2498
 6253, 2580,   94,  449,  443
 6254, 2663,  794,  793,  171
 6255, 2140,  792, 2336,  793
 6256, 2140,  793, 2336, 2186
 6257, 2663,  794,  171,  170
 6258, 1775, 1427, 1110, 1608
 6259, 1844, 1982, 1199, 2633
 6260, 1187, 1553, 1222, 1202
 6261, 1607, 1335, 1103, 1928
 6262, 2312,  785,  778,  779
 6263, 1431, 2094, 2081, 1430
 6264, 2313,  779,  772,  773
 6265, 2661, 1748, 2312, 2663
 6266, 1776, 2335, 1775, 2063
 6267, 1758, 1483, 2151, 2150
 6268, 2336,  171, 2663,  793
 6269, 1183, 1553, 2644, 2656
 6270, 1428, 1333, 1264, 1262
 6271, 2662,  169,  767,  168
 6272, 1758, 1426, 2335, 1447
 6273, 2662,  169,  773,  767
 6274, 2661,  170,  169,  795
 6275, 2106,  761,  168,  767
 6276, 2106,  168,  761,  167
 6277, 2661,  773, 2662,  169
 6278, 1973, 1343, 1341, 1346
 6279, 1153, 1885, 1361, 1163
 6280, 1934,  795, 2662,  796
 6281, 1345, 1856, 1343, 1818
 6282, 2657,  164,  800,  165
 6283, 1343, 1856, 2239, 1818
 6284, 2446,  749,  742,  743
 6285, 2072, 2347, 1728, 2071
 6286, 2446,  749,  748,  742
 6287, 2658,  748,  755,  754
 6288, 2127,  166,  798,  167
 6289, 2106,  797,  796,  168
 6290, 1873, 1874,  765,  766
 6291, 2077,  269,  255,  256
 6292, 1820,  711,  704, 1819
 6293, 2445,  743,  736,  737
 6294, 1345, 1348, 1856, 1855
 6295, 1354, 2074, 2633, 1199
 6296, 2176,  162,  725,  161
 6297, 2041, 2127, 2128, 2129
 6298, 1156, 1716, 1281, 1182
 6299, 1327, 1328, 1437, 1978
 6300, 1979, 2576, 2221, 2141
 6301, 1914, 2501,  822, 1260
 6302, 2417,  821,  840,  820
 6303, 2374, 1965, 1612,  608
 6304, 2149, 2629,  723,  717
 6305, 1980, 2302,  851, 2187
 6306, 1762,  123,  593,  587
 6307, 1686, 1653,  277,  290
 6308, 1356,  844,  843,  824
 6309, 1222, 1714, 1202, 1918
 6310, 1979, 1652, 1978, 2579
 6311, 1979, 2576, 2579, 1978
 6312, 1823, 1817,  699, 2633
 6313, 2575, 2140, 2221, 2576
 6314, 2614, 2458,  312, 1951
 6315, 2221, 2141, 2576, 2140
 6316, 1550, 2085, 2061, 2018
 6317, 1196, 1919, 2653, 2523
 6318, 2646,  688,  682,  689
 6319, 1201, 2605, 2491, 1397
 6320, 2491,  688,  695,  694
 6321, 2499,  158,  157,  807
 6322, 2158,  842,  841,  822
 6323, 1390, 1493, 1232, 1941
 6324, 1974,  230,  217,  231
 6325, 1200, 1197, 2537, 2539
 6326, 2270,  806,  807,  826
 6327, 2605,  687,  694,  693
 6328, 1234, 1389, 1237, 1382
 6329, 2334, 1161, 1647, 1648
 6330, 2490,  156, 2437,  695
 6331, 2437, 2506, 2507, 1397
 6332, 2577,  762,  768, 2355
 6333, 1097, 1091, 1088, 1551
 6334, 1258,  723,  724,  730
 6335, 2562, 2178, 2386,  863
 6336, 2425, 2651, 1260, 2177
 6337, 1147, 1149, 1132, 1669
 6338, 1492, 1493, 1742, 1233
 6339, 1669, 1149, 1132, 1670
 6340, 1357, 1670, 1669, 1133
 6341, 2490,  809,  808,  156
 6342, 2605,  694,  687,  688
 6343, 2163,  810,  154,  147
 6344, 2153, 2163,  154,  683
 6345, 1466, 1229, 1129, 1746
 6346, 1383, 2115, 2112, 2114
 6347, 1851, 1230, 1906, 1909
 6348, 2646, 2153,  689,  683
 6349, 2653,  828,  848,  847
 6350, 2652,  828,  809,  829
 6351, 1844, 1361, 1957, 1341
 6352, 2296,  828,  847,  827
 6353, 1197,  651, 2536,  652
 6354, 1670, 1133, 1493, 1132
 6355, 1381, 1383, 2115, 1942
 6356, 1934,  814,  794,  795
 6357, 2198,  792,  811,   92
 6358, 1327, 2223, 2221, 2572
 6359, 2087, 1906, 1126, 2204
 6360, 1234, 1357, 1133, 2208
 6361, 2187,  851,  831,  832
 6362, 1329,  783,  777,  784
 6363, 1491, 2183,  452,  458
 6364, 2576, 2580, 2573,  449
 6365, 2140,  811,  792,  812
 6366, 2579,  455,  454,  448
 6367, 2186,  812,  793,  813
 6368, 1232, 1237, 1234, 1389
 6369, 1747,  772,  778,  771
 6370, 2436, 1757,  872,  873
 6371, 2661, 2663,  170,  794
 6372, 1934,  814,  813,  794
 6373, 1934, 1748, 2661,  794
 6374, 1376, 1590, 1377, 1378
 6375,  781, 1848, 1647, 1744
 6376, 1934,  814,  795,  815
 6377, 2577, 2356,  762,  237
 6378, 1130, 1507, 1977, 1606
 6379, 2559, 1327, 2340, 1978
 6380, 2045,  283,  269,  270
 6381, 1865,  268,  281,  267
 6382, 2158,  823,  842,  822
 6383, 1972, 1973, 1343, 1341
 6384, 2176, 1260,  802,  803
 6385, 2075,  266,  253,  267
 6386, 1418, 1346, 1458, 1164
 6387, 2185,  295,  281,  282
 6388, 1858, 2543, 2511, 2622
 6389, 1180, 1222, 1187, 1183
 6390, 1156, 1715, 1154, 1281
 6391, 1844, 1845, 1885, 1846
 6392, 1554, 1231, 2439,  857
 6393, 2445, 2425, 2177, 2651
 6394, 1844, 1845, 1847, 1823
 6395, 2417,  819,  839,  838
 6396, 1825, 1672, 1674, 1673
 6397, 2304, 1554,  858, 1915
 6398, 1922, 1674, 2397, 1810
 6399, 2281,  837, 2040,  818
 6400, 1803,  873,  893,  892
 6401, 1721,  361,  347,  348
 6402, 2363,  256,  242,  243
 6403, 1472, 1470, 2602, 2593
 6404, 2111,  990, 1009,  989
 6405, 2410, 2447,  801,  800
 6406, 1782, 1812, 1816,  372
 6407, 1674, 1810, 2503, 2397
 6408, 1832, 1369, 1069, 1825
 6409, 1825, 1363, 1674, 1828
 6410, 2438, 1820,  709, 2430
 6411, 2362,  580,  574,  575
 6412, 1521, 1674, 1799, 1922
 6413, 2473, 2270,  806, 2499
 6414, 1325, 1094, 1147, 1242
 6415, 2101,  718, 1818,  712
 6416, 1987,  592,  587,  593
 6417, 2274, 2270,  825,  806
 6418, 1131, 1151, 1149, 1147
 6419, 1366, 1367, 1248, 2392
 6420, 1847,  692,  699,  698
 6421, 1239, 1249, 1248, 1367
 6422, 1249, 1248, 2392, 1506
 6423, 1188, 1553, 2642, 2644
 6424, 1506, 1504, 1976, 1499
 6425, 1061, 1063, 1393, 1767
 6426, 1351, 2547, 2455, 1386
 6427, 1151, 2102, 1147, 1723
 6428, 2267,  986,  987, 1006
 6429, 1275,  855,  856,  875
 6430, 1140, 1141, 1723, 1242
 6431, 1976, 2164, 2122, 2320
 6432, 1723, 1140, 1131, 1141
 6433, 2507,  826,  807,  827
 6434, 1888, 2156, 2269, 2557
 6435, 2124, 1957, 1458, 1346
 6436, 2652,  809, 2153,  810
 6437, 2464,  846,  845,  826
 6438, 2656, 2642, 2523, 1553
 6439, 2491, 2605, 2646,  688
 6440, 1159,  323,  322,  309
 6441, 2647,  146, 2162,  646
 6442, 1492, 1132, 1233, 1467
 6443, 1344,  707, 2506, 2499
 6444, 1201, 2491, 2296, 2492
 6445, 1097, 1898, 1551, 1546
 6446, 1096, 1093, 1090, 1092
 6447, 2236,  861,  862,  881
 6448, 1498, 1099, 1098, 1501
 6449, 1919, 2656, 1920,  866
 6450, 2153, 2491, 2537, 2646
 6451, 2653,  829,  848,  828
 6452, 2174,  211,   84,  198
 6453,  866, 2523, 1919, 2656
 6454, 2611, 2653, 2647, 2536
 6455, 2262,  686,  685,  679
 6456,  603, 2374,  608, 1965
 6457, 1887, 1890, 1884, 2160
 6458, 2374, 1965,  603, 2372
 6459, 2580,  811,  830,   93
 6460, 2170, 1663, 2111, 1501
 6461, 1067, 1068, 1069, 1694
 6462, 2587, 2573, 2141,  849
 6463, 1071, 1412, 1922, 1420
 6464, 2187,  832,  831,  812
 6465, 1903, 1898, 2502, 2016
 6466, 2579,  461,  460,  454
 6467, 2287, 2374,  602, 2372
 6468, 2556,  814,  833,  813
 6469, 1427, 1110, 1432, 2024
 6470, 1431, 1685, 1429, 1430
 6471, 1569, 1768, 1740, 1607
 6472, 1535, 1526, 1537, 1534
 6473, 1548,  459,  460,  466
 6474, 1534, 1536,  869,  870
 6475, 1430, 2083, 2434, 2109
 6476, 1431, 1457, 1430, 1432
 6477, 1428, 1262, 1265, 1348
 6478, 2556,  833,  832,  813
 6479, 1649, 1651,  199,  200
 6480, 1583, 2498,  890, 1584
 6481, 1427, 1776, 1426, 1775
 6482, 2342, 1589, 1899, 2272
 6483, 2325,  834,  835,  854
 6484, 1934,  796,  815,  795
 6485,  746, 2422, 1901,  753
 6486, 1287,  242,  229,  243
 6487, 2042, 1217, 1216, 2325
 6488, 2040, 2041,  817, 2044
 6489, 1604, 1477, 2043, 2405
 6490, 1296, 1461, 1297, 1459
 6491, 2140, 2141,  831, 2187
 6492, 2426, 1028, 1027, 1008
 6493, 2279,  746,  740,  747
 6494, 2091, 1852,  964,  945
 6495, 2151, 1867,  293,  292
 6496, 2323,  852,  833,  853
 6497, 2304,  839,  858,  838
 6498, 2617,  545,  539,  115
 6499, 1908, 1638, 1686, 1657
 6500, 2342, 2031, 2116,  264
 6501, 1969, 1122, 1970, 1925
 6502, 2043,  836,  856,  855
 6503, 1818,  711,  712,  718
 6504,  198, 1162,   84, 2271
 6505, 2123,  859,  858,  839
 6506, 2021, 1925, 2200, 1168
 6507, 2021, 1961, 1768, 1960
 6508, 2632,  587,  586,  581
 6509, 1456, 1839, 1814, 2117
 6510, 2170, 2349, 1501, 2619
 6511, 2304,  838,  858,  857
 6512, 1758, 2465, 2335, 2394
 6513, 2439,  856,  876,  875
 6514, 1608, 1775, 1563, 1110
 6515, 2001, 1890, 1955, 2433
 6516, 1446, 1740, 1336, 1775
 6517, 2059,  858,  878,  877
 6518, 2167, 1963, 2233,  899
 6519, 1402, 1768, 1925, 1122
 6520, 1740, 1768, 1116, 1928
 6521, 1764, 2231, 2625, 2184
 6522, 1809,  876,  877,  896
 6523, 1764, 1766, 2626, 2625
 6524, 2534,  843,  863,  862
 6525, 1254, 2664, 2004, 2077
 6526,  648, 2260,  140,  141
 6527, 2655, 2654, 2656,  904
 6528, 1267, 1449, 1666, 1587
 6529, 1944, 2037, 1781, 1585
 6530, 2429,  370,  383,  369
 6531, 1105, 1520, 1449, 1443
 6532, 1587, 1449, 1096, 2134
 6533, 2174,   84, 2271,  198
 6534, 2169, 2184, 1764, 2398
 6535, 1765, 1277, 1764, 1272
 6536, 2296,  827,  847,  846
 6537, 1174, 1923, 1401, 1308
 6538, 1355,  845,  844,  825
 6539, 2067,  992,  973,  993
 6540, 1820, 1973, 1972,  704
 6541, 2656,  905,  885,  886
 6542, 1765, 1764, 2626, 2466
 6543, 1105, 1450, 1107, 1106
 6544, 1138,  933,  914,  934
 6545, 1501, 2349, 2624, 2619
 6546, 1712,  347, 2277,  346
 6547, 1856, 1818, 2100, 2239
 6548, 1996,  900,  881,  901
 6549, 1209, 1207, 2553, 2222
 6550, 2462,  864,  845,  865
 6551, 2238,  654, 2259,  648
 6552, 2647,  145, 2525,  848
 6553, 2524, 2656, 2642, 2523
 6554, 2035, 1585, 1106, 2382
 6555, 1623,  884,  864,  865
 6556, 2645,  923,  924,  943
 6557, 2386, 2178,  882,  863
 6558,  185, 1162,  198, 2271
 6559, 2021, 2200, 1925, 2023
 6560, 2021, 1969, 2023, 1925
 6561, 1925, 1122, 1970, 2194
 6562, 1178, 1295, 1174, 1305
 6563, 1191, 1637, 1986,  661
 6564, 2536,  652,  651,  646
 6565, 2523,  848,  867,  847
 6566, 2649,  932,  952,  951
 6567, 1501, 2065, 2600, 2624
 6568, 1489,  460,  459,  453
 6569, 2314,  467,  466,  460
 6570, 2590,   97,  467,  461
 6571, 1450, 2070, 1106, 2382
 6572, 1567, 1980, 1378, 1566
 6573, 2591,  467,   98,  473
 6574, 2587, 2585, 1652, 2579
 6575,  460, 1652, 2314, 2579
 6576, 1173, 1780, 1925, 1568
 6577, 2570, 2382, 2035, 1780
 6578, 1442, 1914, 2501,  822
 6579, 1314, 1313,  476,  477
 6580, 1534,  850,  870,  869
 6581, 2580,   94, 2573,  449
 6582, 1728,  228,  227,  214
 6583, 1518,  256,  257,  270
 6584, 1442,  822, 2501, 2158
 6585, 2168, 1442, 1349, 2158
 6586, 2168, 1386, 1962, 2236
 6587, 1352, 1342, 1351, 1353
 6588, 1757,  892,  891,  872
 6589, 2620,  538,  543,  537
 6590, 1914, 2123,  840, 1442
 6591, 1767, 1868, 1869, 2031
 6592, 1922, 1674, 2159, 2397
 6593, 1287,  229,  230,  243
 6594, 1486, 2612, 1050, 1435
 6595, 2332, 1675, 1672, 2240
 6596, 1674, 2503, 1678, 1671
 6597, 2649, 1139,  933, 1137
 6598, 2304,  839, 2417, 2123
 6599, 1120, 1931, 1446, 1444
 6600, 2077, 1253, 1254, 1252
 6601, 1057, 1059, 1058, 1769
 6602, 1367, 1662, 2449, 2392
 6603, 1356, 2274,  825,  824
 6604, 1050, 1019, 1434, 1038
 6605, 1059, 1769, 1062, 2005
 6606, 1821, 1785, 1983, 2496
 6607, 2038,  992,  972,  973
 6608,  875, 1971,  895, 2439
 6609, 1414, 1514, 1515, 1413
 6610, 2009,  948,  928,  929
 6611, 1803,  873,  874,  893
 6612, 1783,  593,  599,  598
 6613, 1513, 1523, 2131, 2496
 6614, 1971,  913,  894,  914
 6615, 1249, 1367, 2392, 1248
 6616, 2168,  861,  860,  841
 6617, 1838,  503,  496,  497
 6618, 1752, 1689, 2428, 1509
 6619, 2629, 1850, 2100,  717
 6620, 1138,  914,  915,  934
 6621, 1385, 2386,  881,  862
 6622, 1622,  901,  882,  902
 6623, 1822, 1821, 1785, 2268
 6624, 1982,  692, 1937, 2604
 6625, 1963,  899,  879,  880
 6626, 1048, 1053, 1453, 1054
 6627, 1799, 1070, 1363, 1521
 6628, 2615, 1003,  983,  984
 6629, 1414, 1514, 1510, 1509
 6630, 1862, 1861, 1860, 2627
 6631, 1500, 2600, 1501, 2065
 6632, 2095, 2429,  369,  370
 6633, 1442, 2123,  840, 1916
 6634, 1186, 2275,  432, 2565
 6635, 2633, 1397,  700,  694
 6636, 2614,  298,  299,  312
 6637, 1214,   18,  624,    2
 6638, 2062, 1864, 1861, 2518
 6639, 1194,  651,  657,  656
 6640, 1547, 2248, 1546, 2018
 6641, 1861, 1864, 1835, 2621
 6642, 1919,  846,  847,  866
 6643, 2226, 2160, 2429,  383
 6644, 2519, 2617, 2365, 1024
 6645, 1256, 1914, 1933, 1260
 6646, 1235, 1473, 1550, 1913
 6647, 2002, 2552, 2551,  425
 6648, 2226,  396, 2160,  383
 6649, 1919,  846,  866,  865
 6650, 1637, 2549, 1986,  667
 6651, 1228, 1507, 1860, 1227
 6652, 2604, 1982, 1883, 1937
 6653, 1758, 1707, 1657, 2150
 6654, 2524,  144, 2525,  644
 6655, 2523,  867,  866,  847
 6656, 1782,  346, 2228,  359
 6657, 2178,  883,  882,  863
 6658, 1194,  651,  650,  645
 6659, 2162, 2652, 2611, 2537
 6660, 2656,  867,  886,  866
 6661, 1107, 1451, 1931, 1204
 6662, 2248, 2518, 2519, 2348
 6663, 1188, 2644, 2642,  649
 6664, 1500, 2248, 2599, 1546
 6665, 1998, 1847, 1845, 2483
 6666, 2587,  868,  849,  869
 6667,  199,  185, 1648,  186
 6668, 2585,  868,   95,  849
 6669,  185, 1162, 1371, 1186
 6670, 2017, 1502, 2266, 2520
 6671, 2348, 1546, 2599, 2248
 6672, 2585,  868, 2590,   96
 6673, 1512, 2210, 2207, 2209
 6674, 1558,  868,  888,  887
 6675, 2585, 2579,  461, 2314
 6676, 1536,  869,  870,  889
 6677, 1797, 1252, 2363, 2077
 6678, 1369, 2154, 1832, 2078
 6679, 1825, 1674, 1521, 1810
 6680, 1733,  229,  228,  215
 6681, 1566,  871,  870,  851
 6682, 1825, 1828, 1917, 2154
 6683, 1810, 2503, 1678, 1674
 6684, 2181, 2278,  444,  450
 6685, 1447, 1775, 2063, 1445
 6686, 1747, 1745,  777, 1329
 6687, 2348,  539,  545,  544
 6688, 2581, 2392, 1755,  931
 6689, 2184, 2387,  556, 2169
 6690, 1728, 1286,  241, 1729
 6691, 1501, 2065, 2624, 2066
 6692, 2494, 1672, 1917,  364
 6693, 1728,  241,  227,  228
 6694, 2121,  946,  927,  947
 6695, 1488, 1735, 1739, 1487
 6696, 1757,  892,  872,  873
 6697, 1875,  759, 1901,  753
 6698, 1895, 1737, 1830, 1897
 6699, 1406, 1405, 2508, 1613
 6700, 2250,  262,  249,   47
 6701, 2439,  856,  857,  876
 6702, 1898, 2349, 2016, 2066
 6703, 2136,  285,  284,  271
 6704, 1505,  909,  910,  929
 6705, 1962,  879,  878,  859
 6706, 2059,  859,  878,  858
 6707,  930,  949, 2392,  929
 6708, 1047, 1295, 1070, 1511
 6709, 1747,  771, 1745, 2542
 6710, 2080, 1828, 1370, 1369
 6711, 1962,  860,  879,  859
 6712, 1970,  915,  914,  895
 6713, 1550, 2000, 2381, 2371
 6714, 2402, 1903, 2419, 2500
 6715, 1971,  894,  895,  914
 6716, 1433,  129, 1540,  623
 6717, 1091, 1903, 2103, 1551
 6718, 1089, 1100, 1547, 1606
 6719, 2280,  742,  735,  736
 6720,  860, 1962,  879,  880
 6721, 2085, 2190, 2000, 2371
 6722, 1141, 1248, 1249, 1499
 6723, 2167,  919,  918,  899
 6724, 1708, 2098,  335, 2097
 6725, 2110, 2588, 1944, 2461
 6726, 2398, 2169, 1794, 1764
 6727, 2012,  631,  624,  625
 6728, 1684,  126,  605,  125
 6729, 2386,  881,  862,  882
 6730, 2149, 2438,  716,  722
 6731, 2178,  883,  863,  864
 6732, 1761, 2210, 1902, 1783
 6733, 1971,  894, 1806,  875
 6734, 1272, 2050, 1765, 1487
 6735, 2310,  384, 1816,  385
 6736, 1338, 1261, 1263, 1337
 6737, 1447, 2063, 1775, 2335
 6738, 1944, 1763, 1764, 2459
 6739, 1112, 1247, 1805, 2448
 6740, 1449, 1443, 1520, 1448
 6741, 2659, 1444, 1866, 2151
 6742, 1269, 1043, 2068, 1276
 6743, 1920,  885,  884,  865
 6744, 2329, 2011, 2645, 2224
 6745, 1183, 2644, 2655, 2656
 6746, 1154, 1282, 1858, 2227
 6747, 1050, 1636, 1433,  622
 6748, 2329, 1219, 2132, 2634
 6749, 1920,  866,  885,  865
 6750, 2010, 1184, 2630, 2224
 6751,  573, 1735,  578, 1736
 6752, 1628, 1538, 1533, 1706
 6753, 2493, 1993,  941,  940
 6754, 2251, 2195,  954,  955
 6755, 2545, 2552, 2549, 2546
 6756, 1784, 1694, 1695, 1700
 6757, 2643,  143, 2524,  643
 6758, 2656,  885,  866,  886
 6759,  141, 2260,  140, 2224
 6760, 1210, 1079, 1208, 1695
 6761, 1209, 1773, 1999, 2234
 6762, 1696, 1687, 2409, 2528
 6763, 2642,  644, 2524, 2525
 6764, 1740, 1446, 1398, 1775
 6765, 2523, 2656,  866,  867
 6766, 2656,  905,  904,  885
 6767, 1257, 2501, 1442, 1914
 6768, 1179, 1190, 1189, 1213
 6769, 1183, 1184, 1219, 2655
 6770, 1528, 1529, 1527, 1318
 6771, 1184, 1219, 2655, 2645
 6772, 1553, 1221, 2656, 1183
 6773, 2152,  889, 2321, 1583
 6774, 1183, 2238, 1184, 2260
 6775, 1529,  465,  466,  472
 6776, 1515, 1413,  997,  998
 6777, 1580,  888,  908,  907
 6778, 1514, 1509,  996, 1510
 6779, 1530, 1513, 1821, 2496
 6780, 1495,  244,  231,  245
 6781, 1733,  230,  229,  216
 6782, 1495,  231,  232,  245
 6783, 1922, 1834, 1420, 2372
 6784, 1598, 1900, 2143, 2034
 6785, 1899, 2032, 1901, 2422
 6786, 1806,  894,  874,  875
 6787, 1899, 1600, 2422, 1589
 6788, 2342, 2364, 2358, 2272
 6789, 2601, 2608, 2606, 2610
 6790,   84, 2271, 1162,  780
 6791, 1626, 1908, 2342, 1686
 6792, 2379,  542,  536,  537
 6793, 1502, 2053, 2266, 2520
 6794, 1115, 1117, 1931, 1107
 6795, 2449,  949,  948,  929
 6796, 1877, 1602, 2032, 1598
 6797, 1959, 2232, 1170, 1960
 6798, 1625, 2032, 2033, 1899
 6799, 1866, 1444, 2401, 1769
 6800, 1901, 1602, 2032, 1877
 6801, 2600, 1006, 1026, 1025
 6802, 1866, 1868,  280, 1867
 6803, 2075,  267, 1868,  266
 6804, 1057, 1061, 1060, 1062
 6805, 2033, 1598, 1899, 2032
 6806, 1963,  879,  898,  878
 6807, 2402,  548,  542,  543
 6808, 1625, 2033, 2032, 1869
 6809, 1716, 1886, 2007, 2006
 6810, 1963,  898,  897,  878
 6811, 1959, 1102, 2236, 1386
 6812, 1222, 1714, 1182, 1202
 6813, 1193, 1921, 1166, 1199
 6814, 1959, 1963, 2232, 1960
 6815, 1431, 1849, 2081, 2094
 6816, 1959, 1102, 1386, 1384
 6817, 1959, 1916, 1386, 1962
 6818, 2045, 2407, 2004,  269
 6819, 1399, 2366, 1710, 2098
 6820, 1333, 1426, 1447, 1775
 6821, 1335, 1103, 1928, 1916
 6822, 2631,  971,  951,  952
 6823, 2484, 2240,  352, 1675
 6824, 1758, 1706, 1657, 1707
 6825,  937, 1788,  938,  918
 6826, 1622,  882,  883,  902
 6827, 1997, 2386, 2178, 1622
 6828, 1335, 1916, 1928, 1915
 6829, 2261, 2404, 2481,  671
 6830, 1996,  901,  881,  882
 6831, 1812,  359,  360,  373
 6832, 2167,  918,  917,  898
 6833, 1262, 1442, 1916, 1261
 6834, 2251,  936,  935,  916
 6835, 1433,  129,  128, 1037
 6836, 2079, 1699,  401, 1697
 6837, 1433, 1636,  617,  622
 6838, 1370, 2258, 2099, 2495
 6839, 1775, 1333, 1427, 1608
 6840, 2220,  625,   18,   17
 6841, 2070,  954,  953,  934
 6842, 2654,  903,  904,  923
 6843, 2654,  904,  903,  884
 6844, 2255,  960, 2634,  941
 6845, 2103, 2416, 2104, 2389
 6846, 1812,  373, 2225,  386
 6847, 1587, 1449, 2134, 1448
 6848, 2251,  955,  936,  956
 6849, 1891,  974,  973,  954
 6850, 1289, 1109, 1176, 1288
 6851, 1188,  648,  649,  654
 6852, 2017, 1500, 1546, 2248
 6853, 1898, 1546, 2620, 2051
 6854, 2654,  904,  884,  885
 6855, 2095, 2429, 2076,  369
 6856, 2377,  988,  969,  989
 6857, 1985, 1984, 1620,   17
 6858, 1418, 1456, 1111, 1419
 6859, 1898, 2065, 2066, 2620
 6860, 1498, 2502, 1898, 2349
 6861, 2199,  905, 2643,  142
 6862, 2523, 2524, 2656,  867
 6863, 1503, 1502, 2520, 2053
 6864, 2260, 2238, 2259,  648
 6865, 1785, 2268,  958, 1822
 6866, 2655,  924,  923,  904
 6867, 1898, 1500, 2065, 1546
 6868, 2643, 2524, 2642,  643
 6869, 1553, 2642, 2644, 2656
 6870, 2260, 2259,  141,  648
 6871, 1898, 2066, 1501, 2349
 6872, 2655,  924,  904,  905
 6873, 2133,  923,  942,  922
 6874, 2589,  479, 2583,   99
 6875, 1198, 1943, 1882, 2538
 6876, 1558,  906, 2591,  887
 6877, 1558, 2591, 1527, 2590
 6878, 2598, 2589, 2583,  925
 6879, 2598,  906,  907,  926
 6880, 1281, 1284, 1282, 1154
 6881, 2062,  537,  531,  532
 6882, 1512, 1834, 2209, 2207
 6883, 2598,  906,  926,  925
 6884, 2088,  474, 2505,  475
 6885, 2351,  927,  926,  907
 6886, 1192, 1188, 1179, 1187
 6887, 2152,  909,  908,  889
 6888, 2152,  890,  909,  889
 6889, 2310, 1840, 2227, 1152
 6890, 1153, 1163, 1715, 1885
 6891, 1193, 1198, 1166, 1195
 6892, 1844, 1166, 1198, 1885
 6893, 1755,  910,  911,  930
 6894, 1433,  623,  617,  128
 6895, 2476,  709, 2430, 2438
 6896, 1940, 2323, 2561,  852
 6897, 1776, 2063, 1777, 2109
 6898, 2488, 1685, 2148, 2438
 6899, 2023,  935,  934,  915
 6900, 2360, 1092, 2352, 1519
 6901, 1193, 1202, 1921, 2296
 6902, 1714, 1165, 1360, 2562
 6903, 1899, 2364, 1900, 2034
 6904, 2448,  932,  913,  933
 6905,  894,  913, 1806,  893
 6906, 2267, 1006, 2599, 1005
 6907, 2581,  913,  932,  912
 6908, 2322,  220,  221,  234
 6909, 1682, 1281, 1189, 1282
 6910, 1193, 2611, 1196, 2296
 6911, 2036,  973,  953,  954
 6912, 2621, 2627, 1004, 1003
 6913, 2448,  913,  914,  933
 6914, 1887, 1858, 1886, 1926
 6915, 1196, 1194, 2611, 1193
 6916, 2660, 1003, 1022, 1002
 6917, 2057,  950,  951,  970
 6918, 2167, 2233, 2317,  900
 6919, 1187, 1553, 1196, 1552
 6920, 2339,  953,  952,  933
 6921, 1950, 2136, 2241, 2291
 6922, 2339,  952,  972,  971
 6923, 2623, 2065,  551, 2624
 6924, 1264, 1265, 1259, 1429
 6925, 1539, 1266, 1543, 1541
 6926, 2488, 1685, 2609, 2463
 6927, 1735, 2626, 1487, 1736
 6928, 1617, 1706, 2393, 1685
 6929, 1891,  974,  954,  955
 6930, 2237,  917,  937,  936
 6931, 2078, 1593, 1694, 1369
 6932, 1368, 1593, 1370, 1302
 6933, 1905,  585,  584,  579
 6934, 1996,  920, 1787,  919
 6935, 1798,  976,  956,  957
 6936, 1622,  902,  921,  901
 6937, 2210,  605,  604,  599
 6938, 1538, 2148, 2149, 2105
 6939, 1719,  361,  375,  374
 6940, 1617, 1758, 2335, 2394
 6941, 2329, 1630, 2013, 2010
 6942, 1259, 2149, 1850, 2629
 6943, 1394, 1681, 1626, 1625
 6944, 1256, 1263, 1933, 1261
 6945, 1413,  997,  998, 1017
 6946, 1995,  994, 1014, 1013
 6947, 2218, 2514,  600,   57
 6948, 1294, 1042, 2497, 1891
 6949, 1996,  920,  900,  901
 6950, 1185,  626,  632,  625
 6951, 2149, 1429, 1849, 2148
 6952, 1426, 1334, 1333, 1447
 6953, 2639,  958,  977,  957
 6954, 1360, 2462, 1359, 1355
 6955, 2649,  933, 2339,  952
 6956, 2649,  951, 1137,  932
 6957, 1786,  938,  939,  958
 6958, 2649, 2056, 2339, 1139
 6959, 1513, 2496, 2131, 2130
 6960, 2649, 2056, 1137,  951
 6961, 2654,  922,  903,  923
 6962, 2641, 2408,  411,  398
 6963, 1724, 1307, 1723, 2102
 6964, 1884, 2160, 2227, 1926
 6965, 1183, 1221, 2656, 2655
 6966,  660, 1190, 2238,    2
 6967, 1976, 1465, 2321, 1316
 6968, 2492, 2296, 2652, 2491
 6969, 2199,  642, 2643, 2644
 6970, 2259,    2,  654, 2238
 6971, 1056,  615,  614,  609
 6972,  810, 2652, 2162, 2153
 6973, 1684, 1761, 1902, 1034
 6974, 2652, 2491,  809, 2492
 6975, 2644, 2655, 2643, 2199
 6976, 1184, 2224, 2260, 2259
 6977, 2652, 2153,  809, 2491
 6978, 2638,  636, 2012,  637
 6979, 2471, 2645,  924,  943
 6980, 2133,  942,  941,  922
 6981, 2255,  941,  942,  961
 6982, 2074, 1201, 1360, 1355
 6983, 1201, 1355, 2507, 2464
 6984, 2591, 2189, 2583,  906
 6985, 2589,  100, 2338,  485
 6986, 2582,  478,  485,  484
 6987, 1320, 1331, 1744, 1329
 6988, 2568, 1324, 2341, 2566
 6989, 1505,  928,  909,  929
 6990, 2572, 2574, 1331, 1329
 6991, 1755,  929,  910,  930
 6992, 1337, 1335, 1336, 1740
 6993, 2202, 2091, 2093,  964
 6994, 1849, 2094, 1346, 2124
 6995, 1348, 1614, 1442, 1349
 6996, 2618, 2619, 1027, 1026
 6997, 2252,  987,  967,  968
 6998, 1346, 1341, 1973, 1957
 6999, 1856, 1850, 2239, 2100
 7000, 2045,  270, 2166,  283
 7001,  969,  950, 2053,  970
 7002, 1343, 1820, 1818, 2239
 7003, 2608, 2606,  515,  514
 7004, 1344, 2473, 2499, 2270
 7005, 2265,  986, 1005,  985
 7006, 2110,  990,  970,  971
 7007, 2166,  284,  270,  271
 7008, 1921, 1360, 2462, 1918
 7009, 2339,  953,  933,  934
 7010, 2296,  846, 2464,  827
 7011, 2296,  846, 2462, 2464
 7012, 2398,  561,  560,  555
 7013, 2460,  326,  327,  340
 7014, 1921, 1201, 2464, 1360
 7015, 1196, 2296, 2653, 1919
 7016, 1282, 2641, 1682, 2544
 7017, 1180, 1155, 1182, 1280
 7018, 1177, 1081, 1291, 1289
 7019, 2067,  975,  994,  974
 7020, 1334, 1427, 1333, 1428
 7021, 1648, 1161, 1371, 2271
 7022, 2469,  559, 2454,  558
 7023,  349,  350, 2099, 2258
 7024, 1648, 2273,  186, 1371
 7025, 2251,  935,  955,  954
 7026, 1921, 2462, 1360, 2464
 7027, 2200,  917,  897,  898
 7028, 1081, 1303, 1594, 1177
 7029, 1171, 1168, 1175, 1565
 7030, 2196, 1568, 2200, 1925
 7031, 1509,  996,  976,  977
 7032, 2631,  971,  970,  951
 7033,  956, 1788,  937,  936
 7034, 2023,  896,  916,  915
 7035, 1172, 1565, 1564, 1176
 7036, 2020, 2172, 1011, 1030
 7037, 1971,  895, 1970,  914
 7038, 1451, 1400, 1705, 1204
 7039, 1787,  939,  919,  920
 7040, 2532,  958,  939,  959
 7041, 1993,  940,  921,  941
 7042, 1172, 1401, 1923, 1399
 7043, 2540, 2404, 1939,  679
 7044, 2052, 2022, 1969, 1809
 7045, 2251,  956, 2195,  955
 7046, 2478, 2540, 2404, 1939
 7047, 1749, 1047, 1753, 1802
 7048, 1514, 2130,  977, 2639
 7049, 1993,  941,  921,  922
 7050, 1515, 2130, 2131,  978
 7051, 2488, 2476, 2343, 2438
 7052, 2540, 2403, 2557, 2404
 7053, 1964,  609,  603,  604
 7054, 2497,  975,  955,  956
 7055, 1786,  957,  938,  958
 7056, 2010, 2011, 2224, 2012
 7057, 1798,  976,  975,  956
 7058, 2214, 2205,  427, 1773
 7059, 1473, 1864, 2380, 2108
 7060, 2246, 2213,  429,   24
 7061, 1185,  638,  637,  631
 7062, 2203, 1911, 1838, 2206
 7063, 1911, 2601, 2607, 2608
 7064, 2645,  923, 2655,  924
 7065, 2257,  376,  362,  363
 7066, 2493,  960,  959,  940
 7067, 1631,  981, 2215, 1000
 7068, 1911, 2608, 2607, 2146
 7069, 2638,  943, 2471,  138
 7070, 2010, 2630, 2012, 2224
 7071, 1911, 1836, 2608, 2146
 7072, 1911, 2593, 2608, 1836
 7073, 2645,  942,  923,  943
 7074, 1474, 1836, 1911, 1835
 7075, 1823, 1847,  698, 1972
 7076, 2656, 2654,  885,  904
 7077, 2638,  962, 2011,  943
 7078, 2555,  484, 2582,  485
 7079, 1079, 1694, 1695, 1784
 7080, 2273,  187,   30,   31
 7081, 2589,   99, 2583,  925
 7082, 1068, 1694, 1593, 1369
 7083, 2202,  963,  964,  983
 7084, 1852,  946,  965,  945
 7085, 1206, 1985, 1214, 1984
 7086, 2598,  944,  925,  945
 7087, 1879, 1742, 1743, 1881
 7088, 2009,  948,  947,  928
 7089, 2530, 2621, 1713, 2660
 7090, 1206, 1208, 1985, 1209
 7091, 1695, 2521, 1699, 2409
 7092, 1189, 1223, 1581, 1181
 7093, 1618, 1562, 1524, 1985
 7094, 2586,  246, 1669,  259
 7095, 2204,  490,  496,  489
 7096, 2309,  513,  107,  106
 7097, 2008,  947,  948,  967
 7098, 1693, 1697, 1770, 1701
 7099, 2385,  951,  931,  932
 7100, 1848, 1745,  770, 2542
 7101, 2053,  969,  968,  949
 7102, 2616,  965,  985,  984
 7103, 1823, 1847,  699,  698
 7104, 1898, 2051, 2620, 2066
 7105, 1083, 1578, 1811, 1813
 7106, 1161,  786,  780,  787
 7107, 1408, 1778, 1409, 1999
 7108, 2466,  566,  560,  561
 7109, 2051,  542,  537,  543
 7110, 1490,  453,  452,  446
 7111, 1618, 1410, 1562, 1999
 7112, 2070,  935,  954,  934
 7113, 2630, 1985, 1214, 1211
 7114, 1410, 1770, 1800, 1560
 7115, 1209, 1999, 1619, 2234
 7116, 1696, 1701, 1209, 2553
 7117, 1179, 1180, 1182, 1187
 7118, 2050, 2613, 2460, 2452
 7119, 2111, 1009, 1008,  989
 7120, 1696, 2553, 1209, 1207
 7121, 1696, 2409, 1687, 1695
 7122, 1304, 1780, 1568, 1305
 7123, 2355,  768,   82,   81
 7124, 2251,  935,  936,  955
 7125, 2476, 2475, 2430,  708
 7126, 1178, 2251, 2237, 1788
 7127, 1290, 1178, 1786, 1365
 7128, 1786, 1787, 1788, 1178
 7129, 1788,  957,  956,  937
 7130, 1582, 1085, 1813, 1109
 7131, 1789, 1169, 1293, 2317
 7132, 1266, 1933, 2425, 1260
 7133, 2497,  975,  974,  955
 7134, 1718, 1700, 2225,  374
 7135, 1750, 1013, 1012,  993
 7136, 1256, 1257, 1265, 1442
 7137, 1093, 1519, 2245, 1516
 7138, 1933, 2304, 1261, 1557
 7139, 2171, 1011,  991,  992
 7140, 1823, 2633,  699, 1982
 7141, 1855, 1257, 2158, 1349
 7142, 1256, 2123, 1914, 1442
 7143, 2467, 1037, 1036, 1017
 7144, 2476,  708, 2430,  709
 7145, 2282, 2425, 1266, 2417
 7146, 1085, 1577, 1813, 1288
 7147, 1615,  126, 1035,  127
 7148, 1157, 1907, 1165, 1714
 7149, 1482, 2019, 2632, 1989
 7150, 1510, 1016,  996,  997
 7151, 1482, 2020, 2632, 2019
 7152, 2131,  979,  959,  960
 7153, 1766, 1482, 2019, 1485
 7154, 2067, 1750,  993,  994
 7155, 2014, 2310,  384, 1816
 7156, 1075, 1406, 1412, 1405
 7157, 1631, 1000,  999,  980
 7158, 2255,  960,  941,  961
 7159, 2255,  960,  961,  980
 7160, 2638, 2011,  962, 2013
 7161, 1629,  627,  633,  626
 7162, 1270, 1487, 1277, 1766
 7163, 1385, 1353, 2455, 1384
 7164, 1753, 1834, 1650, 1988
 7165, 1178, 1295, 2396, 1365
 7166, 2637,  638,  136,  637
 7167, 1621,  902,  922,  921
 7168, 1752, 1294, 2428, 1995
 7169, 1515,  998,  978,  979
 7170, 2011,  942,  943,  962
 7171, 2011,  961,  942,  962
 7172, 1753, 1830, 1737, 1650
 7173, 2533,  606,  600,  601
 7174, 2637, 2013,  962,  981
 7175, 2013,  981,  961,  962
 7176, 1480, 1484, 1892, 1485
 7177, 1753, 1989, 1751, 1988
 7178, 2170, 2619, 1501, 2111
 7179, 1108, 1443, 1448, 1146
 7180, 1944, 2459, 2461, 2171
 7181, 1656, 1654, 2027, 1655
 7182, 2593,  514,  520,  519
 7183, 2165,  965,  946,  966
 7184, 1277, 1766, 1764, 1485
 7185, 1484, 2038, 2036, 2067
 7186, 2377, 2111, 2451,  989
 7187, 2628,  966,  967,  986
 7188, 2171, 2459, 2361, 1763
 7189, 2520,  949,  968,  948
 7190, 2450, 1765, 1487, 2626
 7191, 2053,  950,  969,  949
 7192, 1305, 1295, 1041, 2497
 7193, 1923, 2366, 1721, 1594
 7194, 1308, 1991, 2097, 1923
 7195, 1844, 1823, 1847, 1982
 7196, 1326,  271,  258,  272
 7197, 2502,  555,  554,  549
 7198, 2628,  985,  966,  986
 7199, 1303, 1081, 1291, 1177
 7200, 2110, 2631,  970, 2054
 7201, 2077,  255,  254, 2363
 7202, 1388,  516, 2115,  517
 7203, 1837, 2204,  496,  495
 7204, 1923, 2099, 1368, 2258
 7205, 2118, 2554,  247, 2120
 7206, 2530,  533, 2518,  532
 7207, 1480, 2067, 1750, 1892
 7208, 1178, 1568, 2195, 1305
 7209, 2098, 1923, 1721, 2258
 7210, 1844, 2633, 1823, 1982
 7211, 1762, 2069,  123,  587
 7212, 2036,  973,  972,  953
 7213, 2623, 2618, 1026, 2600
 7214, 2461, 1010, 1009,  990
 7215, 1859, 2256, 1370, 2495
 7216, 2339,  952,  953,  972
 7217, 1550, 2371, 2085, 2000
 7218, 2035, 1891, 2036, 2570
 7219, 2554,  260, 2352,  247
 7220, 2554, 1092, 1357, 2352
 7221, 2379, 2085, 1551, 2051
 7222, 1945, 1791, 2470, 2469
 7223, 1497, 1449, 1095, 1096
 7224, 2332, 2159, 2594, 2292
 7225, 2025, 2117,  344,  345
 7226, 1551, 1546, 1898, 2051
 7227, 2488, 2476, 2475, 2343
 7228, 2104, 2416, 2360, 2389
 7229, 2588,  991,  990,  971
 7230, 2649,  952,  932,  933
 7231, 1482, 2632, 2020, 1981
 7232, 1944, 2037, 2588, 2457
 7233, 1158,  337, 1990,  324
 7234, 2023,  897,  916,  896
 7235, 2020, 1892, 1750, 1012
 7236, 1481, 1736, 1766, 2019
 7237, 2195,  955, 1891,  954
 7238, 1053, 1052, 1454, 1690
 7239, 2020, 1485, 2362, 2019
 7240,  206, 1742, 1881, 2299
 7241, 1845, 1823, 1972, 1847
 7242, 1459, 1584, 1537, 1534
 7243, 1134, 1135, 1227, 1229
 7244, 1158, 2440, 2097,  337
 7245, 1509,  996,  995,  976
 7246, 2235,  175, 1778,  181
 7247, 1211, 2630, 1985, 2010
 7248, 2207,  597, 2209,  598
 7249, 1615,  605,  611,  610
 7250, 1636,  611,  616,  610
 7251, 1676,  594, 2514,   56
 7252, 1917,  364,  377,  363
 7253, 1123, 1128, 1126, 1906
 7254, 1413, 1016,  997, 1017
 7255, 1035, 1684, 1730, 1510
 7256, 2130, 2131,  978,  959
 7257, 1870, 1312, 2096, 2090
 7258, 1952,  979,  999,  998
 7259, 2012, 2630,  624,  630
 7260, 2299, 2089, 2192,  205
 7261, 1185,  625, 2012, 2220
 7262, 2255,  979,  960,  980
 7263, 2013,  961,  981,  980
 7264, 1460, 1588, 1312, 2319
 7265, 1468, 2089, 2090, 2088
 7266, 1043, 1040, 1826, 1301
 7267, 1093, 1092, 2245, 1519
 7268, 1700, 2225,  374,  387
 7269, 1452,  634,  627,  628
 7270, 1433, 1435, 1540, 1434
 7271, 2637,  981,  962,  136
 7272, 2090, 2089, 2192, 2088
 7273, 1160,  312, 2614, 2458
 7274, 2614, 1951, 1145, 2458
 7275, 2204, 1838,  496,  490
 7276, 2367,  102,  491,  101
 7277, 2202, 2597, 1838, 2367
 7278, 2147, 1020, 1021,  112
 7279, 2291, 1145, 1143, 2614
 7280, 1950, 2614, 2241, 1951
 7281, 2614, 1143, 2291,  298
 7282, 2614, 1790, 1950, 2291
 7283, 1862, 2008, 2628, 2165
 7284, 2266,  968,  969,  988
 7285, 1145, 1790, 2291, 1146
 7286, 1609, 2058, 1942, 1610
 7287, 1609, 1611,  487,  493
 7288, 1863, 1909, 2204, 1906
 7289, 2631,  952, 2339,  971
 7290, 1128,  489, 1863,  488
 7291, 2058, 1383, 2112, 1472
 7292, 2266,  987,  968,  988
 7293, 1232, 1941, 1879, 1390
 7294, 2252,  987,  986,  967
 7295, 2058, 2112,  499, 2603
 7296, 1226, 1232, 1129, 1236
 7297,  762,   81,  768, 2355
 7298, 2267, 1005,  986, 1006
 7299, 1390,  220, 2322, 1493
 7300, 1546, 2620, 2051, 2061
 7301, 2617, 1024,  116,  115
 7302, 1389, 1390, 2322, 1493
 7303, 2355,  762,   81,  237
 7304, 1684, 1510, 1015, 1902
 7305, 1382, 2370, 1387, 2381
 7306, 1389, 1390, 1391, 2322
 7307, 2618, 1026, 1027,  118
 7308, 2620,  538, 2062, 2348
 7309, 2389,  260,  261,  274
 7310, 2110,  990,  989,  970
 7311, 1381, 1232, 1942, 1390
 7312, 1059, 1240, 2047, 1956
 7313, 2291,  297, 1143, 2290
 7314, 2623, 2624, 2618, 2600
 7315, 1879, 1942, 1390, 2327
 7316, 1468, 1312, 1870, 2090
 7317, 1797,  243, 2363, 1796
 7318, 2210, 1730, 1615, 1684
 7319, 2084, 2355, 2333,  224
 7320, 2038,  992,  991,  972
 7321, 2377,  989, 2451,  988
 7322, 1468, 2089, 2088, 1743
 7323, 2484, 2485, 2487, 1896
 7324, 2441, 2443, 2444,  338
 7325,  282, 2048,  295, 2045
 7326, 2299, 2089,  205, 2305
 7327, 2088, 2298,  480, 2300
 7328, 2171, 1010, 2461,  991
 7329, 1807, 1116, 1119, 1809
 7330, 2067,  994,  993,  974
 7331, 2231, 2184, 2387,  562
 7332,   82,  224, 2355,  237
 7333, 2514,  600,   57,  594
 7334, 1742, 1467, 2089, 2305
 7335, 1650,  590,  585,  591
 7336, 1750,  994, 1013,  993
 7337, 2299, 2088, 2300, 2298
 7338, 2587,  868, 2585,  849
 7339, 2587,  849, 2585, 2573
 7340, 1311, 1504, 1976, 1465
 7341, 2333, 2355,   82,  224
 7342, 1980, 2587,  850, 1534
 7343, 2532,  939,  940,  959
 7344, 1980,  850, 2141, 2187
 7345, 1514,  997,  996,  977
 7346, 2587, 1535,  869, 1534
 7347, 2587, 1567, 1652, 1534
 7348, 2408, 1578, 1284, 1581
 7349, 1185, 2215, 1631, 2637
 7350, 1615,  127,  611,  126
 7351, 1761, 1033,  125,  124
 7352, 1544, 1549, 1461, 1526
 7353, 1321, 1327, 1437, 1635
 7354, 2337, 2355,  224,  237
 7355, 1636, 1036, 1037,  128
 7356, 2388,  773, 2662, 2313
 7357, 2388, 2420,  766, 1873
 7358, 1068, 1069, 1694, 1369
 7359, 1510, 1016, 1015,  996
 7360, 1936, 2388, 1874, 1873
 7361, 1952,  979,  980,  999
 7362, 1486, 2612, 1435,  635
 7363, 2388,  772, 2313, 1874
 7364, 2568,  439, 2275, 2566
 7365, 2568, 1324, 2566, 1646
 7366, 1321, 1322, 1323, 1374
 7367, 1435,  635,  130,  641
 7368, 1848,  782,  775,  776
 7369, 2467, 1018, 1037, 1017
 7370, 1648, 1647, 1646, 2275
 7371, 2568, 1635, 1646, 2182
 7372, 2596,  104, 2610,  509
 7373, 1656, 2468, 2181, 1649
 7374, 2145, 2660, 1713, 1022
 7375, 2601, 2606, 2608, 2592
 7376, 2607, 1021, 1001, 1002
 7377, 2627, 1003,  984, 1004
 7378, 2615, 2093,  983, 1002
 7379, 2530,  526, 2108, 1836
 7380, 1886, 2543, 2269, 1926
 7381, 1858, 1886, 2543, 2622
 7382, 2008,  967, 2628,  966
 7383, 1381, 2328, 2330, 2115
 7384, 2621, 2519, 2365, 1023
 7385, 1886, 2007, 2006, 2479
 7386, 1327, 2572, 2221, 2559
 7387, 2617, 2365,  115,  539
 7388, 2572, 2563, 2191, 2341
 7389, 2518, 2348,  538,  539
 7390, 1324, 1647, 1331, 2567
 7391, 2623, 2617,  116,  545
 7392, 2267, 1006,  987, 1007
 7393, 1324, 2563, 2566, 1331
 7394, 1324, 2566, 2563, 2341
 7395, 2599, 1025, 1005, 1006
 7396, 2599, 1025, 1024, 1005
 7397, 2623, 2600, 2065, 2624
 7398, 2451, 1007,  988, 1008
 7399, 2568, 1324, 1646, 1635
 7400, 1645, 1323, 1647, 1633
 7401, 2398,  555,  556,  561
 7402, 2038, 2588,  972,  991
 7403, 2451,  988,  989, 1008
 7404, 2349,  550, 2624,  556
 7405, 2619, 2111, 1008, 2451
 7406, 2619, 1027, 1026, 1007
 7407, 1649, 1655, 1656, 1645
 7408, 2568, 2566,  440,  439
 7409, 2230, 2173,  119,  563
 7410, 1321, 1323, 1379, 1374
 7411, 2169, 2349, 2398, 2502
 7412, 1323, 1324, 1646, 1647
 7413, 1379, 1438, 1439, 1323
 7414, 2230,  120, 2229,  569
 7415, 2361, 1009, 1010, 1029
 7416, 2560, 2572, 2191, 2221
 7417, 2255, 2329, 1630, 2013
 7418, 2229, 1029, 1030,  121
 7419, 1892, 1011,  992, 1012
 7420, 1490, 1635, 1437, 2340
 7421, 2568,  440, 2341,  446
 7422, 2038,  992, 2171,  991
 7423, 1048, 1054, 1055, 1052
 7424, 2068, 1158, 2443, 2440
 7425, 2179, 2632, 2362,  581
 7426, 1800, 1770, 1833, 1560
 7427, 1833, 1560, 1770, 1771
 7428, 1685, 2609, 2393, 2082
 7429, 2179,  121, 1030,  122
 7430, 1989,  580, 2632,  586
 7431, 2148,  721, 2149, 2105
 7432, 1329, 1744, 1745,  776
 7433, 1981, 1032, 1012, 1013
 7434, 2069, 1031, 1032,  123
 7435, 1689, 1014,  995, 1015
 7436, 1762, 1032, 1033,  124
 7437, 1932, 1033, 1013, 1014
 7438, 1561, 2435, 1824, 1832
 7439, 1684, 1761,  125,  599
 7440, 1684,  125, 1034,  126
 7441, 2435,  389, 1824, 1832
 7442, 1917, 1828, 2256, 2154
 7443, 2435, 2154,  376,  389
 7444, 2435,  377, 1673,  390
 7445, 1917,  377, 2435,  376
 7446, 1208, 1618, 1985, 1209
 7447, 1693, 1697, 2079, 1800
 7448, 1510, 1035, 1015, 1016
 7449, 1684, 1034, 1035,  126
 7450, 1730, 1016, 1017, 1036
 7451, 1615, 1035, 1036,  127
 7452, 1697, 1693, 1696, 1701
 7453, 1636,  128,  617,  127
 7454, 1964,  604,  610,  609
 7455, 1562, 1409, 1619, 1999
 7456, 1966,  998,  999, 1018
 7457, 2010, 2013, 2329, 2011
 7458, 1631, 2486, 1952,  999
 7459, 1050, 1018, 2486, 1019
 7460, 2255, 1893, 1630, 1523
 7461, 1050, 1019, 2486, 1434
 7462, 1744, 1331, 1320, 1647
 7463, 1056,  615,  610,  616
 7464, 1894, 1629,   16,  627
 7465, 2080, 1719, 2257, 2154
 7466, 2257,  363, 2258, 2256
 7467, 2257, 2258,  362, 1719
 7468, 1917, 2257,  363,  376
 7469, 1907, 1714, 2562, 1165
 7470, 1050, 1038, 1018, 1019
 7471, 1083, 1811, 1578, 1284
 7472, 1353, 1441, 1385, 1967
 7473, 1837,  502, 2592,  501
 7474, 2596, 1020,  103, 1001
 7475, 1419, 1967, 1441, 1353
 7476, 1967, 1353, 2455, 1385
 7477, 2660, 1022, 1021, 1002
 7478, 2607, 1021, 1020, 1001
 7479, 2145, 2147,  112,  521
 7480, 2147, 2608, 2610,  515
 7481, 2145, 1021, 1022,  113
 7482, 1907, 2178, 1967, 2562
 7483, 1967, 2386, 1441, 1385
 7484, 2621, 1003, 1023, 1022
 7485, 2145, 1021,  113,  112
 7486, 2146,  521,  526,  520
 7487, 1713, 1022, 1023,  114
 7488, 1967, 1165, 2562, 1358
 7489, 2519, 1005, 1024, 1004
 7490, 2530,  527,  532,  526
 7491, 1713,  113, 1022,  114
 7492, 2052, 1915, 1928, 2059
 7493, 2052, 1337, 1915, 1554
 7494, 2617, 1025,  116, 1024
 7495, 2518, 2062,  538, 2348
 7496, 2518,  533, 2365,  539
 7497, 2519, 1024, 1023, 1004
 7498, 1608, 1740, 1607, 1569
 7499, 2600, 1007, 1026, 1006
 7500, 2065, 2620,  544, 2066
 7501, 1864, 2062, 2061, 2380
 7502, 2599, 2600, 1025, 1006
 7503, 1807, 2052, 1809, 1231
 7504, 1754, 1278, 1250, 1283
 7505, 2623, 2624,  551, 2618
 7506, 2267, 2451, 1007,  988
 7507, 2052, 1928, 1915, 1337
 7508, 1143, 1160, 1145, 1159
 7509, 1790, 1145, 2614, 1951
 7510, 2426, 1009, 1028, 1008
 7511, 1946, 1948, 2412, 1947
 7512, 1945, 1794, 1791, 2427
 7513, 1146, 1145, 1143, 2291
 7514, 1160, 2614, 1143, 1145
 7515, 2068, 2442, 1145, 2050
 7516, 2119,   44, 2353,  223
 7517, 1186, 2565,   86,  786
 7518, 1419, 1907, 1167, 1842
 7519, 1976, 2321, 2320, 2411
 7520, 1789, 1996, 1994, 1787
 7521, 1542,  734,  728,  735
 7522, 1971,  875,  895,  894
 7523, 1866,  281, 1865, 2401
 7524, 1997, 1441, 2386, 1996
 7525, 1179, 1182, 1181, 1192
 7526, 1820, 1818, 2239,  711
 7527,   73, 2488, 2489,  720
 7528, 2382,  953, 2070,  954
 7529, 1744, 1331, 1647, 2567
 7530, 2516, 1691, 2508, 1793
 7531, 1731, 1692, 2125,  619
 7532, 1177, 1365, 1303, 1178
 7533, 2415, 2446, 2657, 2658
 7534, 1273, 1283, 1274, 1803
 7535,  895, 2439,  876,  875
 7536, 1152, 1167, 1284, 1814
 7537, 1596, 2031, 1869, 2033
 7538, 1684, 1761, 1034,  125
 7539, 1252, 1254, 2077, 1797
 7540, 1596, 1767, 1393, 1869
 7541, 1767, 2031, 2075, 1868
 7542, 2488,  714,  720,   73
 7543, 1063, 1869, 1767, 1868
 7544, 2598, 2589,  925,  944
 7545, 1865, 1063, 1866, 1769
 7546, 1255, 1767, 2064, 2075
 7547, 1767, 1644, 2064, 2030
 7548, 1338, 1395, 1479, 1337
 7549, 2423, 2126,  315,   75
 7550, 1215, 1274, 2522, 2400
 7551, 2376,  756,   80,   79
 7552, 2507,  807,  808,  827
 7553, 1336, 1339, 1395, 1483
 7554,  369, 2095, 2345,  368
 7555, 1684, 2210,  599,  605
 7556, 1608, 1398, 1569, 1563
 7557,   74,  328, 2489,  341
 7558, 1338, 1261, 1554, 2304
 7559, 1261, 1337, 1554, 1915
 7560, 1258, 2651, 2180, 1260
 7561, 1256, 1265, 1257, 1259
 7562,  328, 2343, 2488,  341
 7563, 1335, 1262, 1916, 1915
 7564, 1263, 1933, 1261, 1557
 7565, 1908, 1533, 1640, 1638
 7566, 1257, 2629, 1259, 1850
 7567, 1916, 1261, 1915, 1262
 7568, 1338, 1261, 2304, 1557
 7569, 2567,  788,  787,  781
 7570, 2565,  787, 2567, 2564
 7571, 2591,   98, 2583,  473
 7572, 1761, 1932, 1783, 1902
 7573, 1382, 2381, 1913, 1550
 7574, 1383, 1232, 1381, 1237
 7575, 1998, 1938, 1954, 1889
 7576, 1356, 1355,  844,  825
 7577, 1472, 2593, 1911, 1836
 7578, 2095,  356, 2346,  357
 7579,  368,  369,  355, 2345
 7580, 1226, 1228, 1475, 1227
 7581, 1819,  705,  711,  704
 7582, 1782, 2025,  345, 2117
 7583, 2095,  356,  357,  370
 7584, 1474, 1910, 1835, 1911
 7585, 2095,  356,  370,  369
 7586, 1236, 1863, 1909, 1912
 7587, 1910, 1835, 1911, 2607
 7588, 2322, 2208, 2120, 1391
 7589, 2118, 2322, 2208, 2120
 7590, 2322,  221, 1391,  234
 7591, 2322,  233, 1670, 1493
 7592, 2557,   65,  419,  420
 7593, 1390,  221, 2322,  220
 7594, 1063, 1865, 1866, 1868
 7595, 2322, 1493,  220,  233
 7596, 2274, 2383, 2276, 2101
 7597, 1838, 2595,  490, 2204
 7598, 2028, 2351,  908,  927
 7599, 1354, 1817, 1341, 1823
 7600, 2276,  824, 2158,  823
 7601,  710, 1820,  711,  704
 7602, 1344,  712, 2101, 1818
 7603, 1837,  496,  502,  495
 7604, 2055, 1662, 1717, 1251
 7605, 1252, 1797, 2363, 1796
 7606, 2587,  849,  850,  869
 7607, 2075, 1868,  267, 1865
 7608, 1113, 1112, 1247, 1805
 7609, 1754, 1278, 1279, 1248
 7610, 1298, 1297, 1306, 1243
 7611, 1092, 1669, 1357, 2352
 7612, 2559,  448,  447,  441
 7613, 1589, 2422, 1901,  746
 7614, 1548, 1529,  465,  466
 7615, 1761, 1932, 1762, 1783
 7616, 1063, 1866, 1867, 1868
 7617, 1954,  690,  697,  696
 7618, 2055, 1366, 2385, 2057
 7619, 1061, 1245, 1060, 1254
 7620, 1115, 1122, 1119, 1116
 7621, 2031,  252,  266,  265
 7622, 1719, 1718, 1594, 1721
 7623, 2532, 2493,  959,  940
 7624, 2482,  656, 1194,  657
 7625, 2086, 2009, 1977, 2008
 7626, 1724, 2102, 1517, 2664
 7627, 2223, 2572, 2560, 2221
 7628, 1490,  446,  447,  453
 7629, 2462, 1919, 1918,  865
 7630, 1901, 1589,  752,  751
 7631, 2243, 1520, 2134, 2136
 7632, 1323, 1320, 1324, 1647
 7633, 1651, 1645, 1648, 1647
 7634, 1596, 1573, 2034, 1598
 7635, 1375, 1374, 1380, 1732
 7636, 2284,  213, 1658, 2347
 7637, 1128,  483,  489,  482
 7638,  750, 1900, 2034,  756
 7639, 2034,  762, 2356,  756
 7640, 2376,   80,  250,  263
 7641, 1761, 1762, 1033,  124
 7642,  265,  251, 2359,  252
 7643, 2415,  799, 2041, 2129
 7644, 1626, 1867, 2150, 2116
 7645, 1597, 1598, 1876, 1878
 7646, 1761, 1783,  593,  599
 7647, 1901, 2422, 2418,  753
 7648, 2311,  110,    6,   41
 7649, 2040, 2041,  818,  817
 7650, 1598, 1876, 1878, 1877
 7651, 2359, 2033, 2364,  264
 7652,  252,  265, 2031, 2359
 7653, 2073,  239, 2359,  238
 7654, 1875, 1901, 2418,  753
 7655, 2364, 2359,  264,  251
 7656, 2143,  763,  757,  764
 7657, 1604, 2040, 2044, 2041
 7658, 2422, 2418,  753,  747
 7659, 2418,  753,  747,  754
 7660, 1601, 2041, 2424, 2128
 7661, 1604, 1216, 1603, 2044
 7662, 1275, 1274, 2400,  855
 7663, 2415, 2129, 2657,  799
 7664, 2031, 2030,  253,  252
 7665, 1645, 2284, 1658, 1659
 7666, 1414, 1510, 1512, 1834
 7667, 1901,  759,  758,  752
 7668, 2030, 2359,  239,  252
 7669, 1148, 1422, 1423, 1150
 7670, 1901,  752,  753,  759
 7671, 2075,  266, 2031,  253
 7672, 2513,   62,  422,  423
 7673, 2558,  422, 2513,   63
 7674, 2513,  674,   63,   62
 7675, 2510,  668,  674,  673
 7676, 2550, 2552,   20,  672
 7677, 2511,  409,  410,  423
 7678, 2510, 2546,  673, 2513
 7679, 2222, 2234,  177,  183
 7680, 1631,  981, 1000,  980
 7681, 1772, 1778, 2234, 2213
 7682, 2214, 2553, 2222, 1773
 7683, 1772, 2213, 1759, 1778
 7684, 1772,  429,  428,  415
 7685, 1706, 1533, 1640, 1538
 7686, 1360, 1359, 2462, 2562
 7687, 1614, 1386, 1349, 1384
 7688, 2343,  355,  354,  341
 7689, 2423,  315, 2609,  328
 7690, 2394, 2393,  317, 2434
 7691, 1972,  704,  698,  705
 7692, 1820,  704,  710,  703
 7693, 1685, 2609, 2082, 2343
 7694, 1161, 2174,  780, 2271
 7695, 1647, 2567, 1161,  781
 7696, 1648,  198,  185,  199
 7697, 2174,  774,  780,   83
 7698, 2284,  212,  213,  226
 7699, 2357,  774, 2333,  768
 7700, 2357, 1574, 2542, 2143
 7701, 2553,  413,  414,  427
 7702, 1696, 1698, 2528, 1699
 7703, 1621,  883,  903,  902
 7704, 1048, 1455, 1050, 1452
 7705, 1542,  728,  729,  735
 7706, 2185, 2659,  294,  307
 7707, 1555,  857,  837,  838
 7708, 2281, 2040, 1556, 2405
 7709, 1541,  729,  730,  736
 7710, 2255,  979, 1893, 2131
 7711, 2486, 1019,  999, 1000
 7712, 2012, 2224, 2630,  630
 7713, 2220,  626, 1629, 1185
 7714, 2462,  864, 2562, 1359
 7715, 1858, 2544, 1926, 2227
 7716, 2462,  865, 1918,  864
 7717, 1994,  940,  920,  921
 7718, 2465,  306, 1445,  319
 7719, 2246, 2213,   24,  181
 7720, 1772, 2213, 2205,  428
 7721, 1824, 1833, 1832,  402
 7722, 2213,   23,   24,  181
 7723, 2205,   23, 2213,  182
 7724, 1561, 1824, 1560, 1832
 7725, 1772, 2213,  428,  429
 7726, 2255, 2132,  942,  941
 7727, 1209, 2234, 2222, 1773
 7728, 1760,  417, 1801, 1759
 7729, 1999, 2234, 1778, 1619
 7730, 1701, 1773,  414,  415
 7731, 1219, 2527, 2654, 2133
 7732, 1701, 2553, 1698,  414
 7733, 2235,  174, 2161,  175
 7734, 2216, 1454,   14,   13
 7735, 1953, 1778, 2161,  175
 7736, 2201, 1454, 2125,   13
 7737, 2504,  621,  620,  615
 7738, 1964,  604, 1615,  610
 7739, 1690,  628,  627,   15
 7740,  919, 1788,  918,  938
 7741, 1868, 1865,  280,  267
 7742, 1444, 2659, 2465, 2151
 7743, 1702, 2254,  322,  321
 7744, 1826, 1401, 1308, 1304
 7745, 2251, 2196, 2023,  935
 7746, 2167,  918,  898,  899
 7747, 1811, 2310, 1812, 2406
 7748, 2220,   18, 1214, 1985
 7749, 2656, 2654, 1920,  885
 7750, 1214, 2220, 2630,  624
 7751, 1690, 1894,  627,  628
 7752, 1214, 1984,   18, 1212
 7753, 1985, 2220, 2010, 2630
 7754, 1953, 1409, 2161, 1778
 7755, 2215, 2515, 1452, 2486
 7756, 1515, 1413,  998, 1966
 7757, 2012, 2224,  630,  636
 7758, 1630, 2220, 1629, 1185
 7759, 1733, 1287,  229,  230
 7760, 2008, 2165,  947,  966
 7761, 2028, 2152,  909,  908
 7762, 2071, 1728,  240,  227
 7763, 2377,  988, 2451, 2266
 7764, 2267,  987,  988, 1007
 7765, 1558,  907,  906,  887
 7766, 2089, 2137, 2192, 2026
 7767, 2311, 2307,  197, 2306
 7768, 2586, 1496,  245, 1495
 7769, 2377,  969,  970,  989
 7770, 2136,  271, 1516,  272
 7771, 2326,  208,  195,  209
 7772, 1236, 1863, 1906, 1909
 7773, 2114,  518,  517,  512
 7774, 2326,  196,  209,  195
 7775, 2328,  209,  210,  223
 7776, 2333, 2135, 2174,  774
 7777, 2174, 1651, 2334, 2175
 7778, 2084,  211, 2174, 2175
 7779, 2174, 2135,  780,  774
 7780, 2174,   84,  780, 2271
 7781, 1161, 2174, 2135,  780
 7782, 2171,  991, 1011, 1010
 7783, 1360, 2462, 1355, 2464
 7784, 1892,  992,  993, 1012
 7785, 2179, 2362, 2229,  575
 7786, 1666, 1585, 1944, 1781
 7787, 2111, 2451,  989, 1008
 7788, 2382, 2036,  954, 2570
 7789, 2382,  954, 2036,  953
 7790, 2019, 1766,  573, 1736
 7791, 2231, 2361, 2625, 2229
 7792, 1891, 2036, 2570,  954
 7793, 1891, 2036,  954,  973
 7794, 2038, 2067, 1892,  992
 7795, 1683, 1986, 2549, 2550
 7796, 1387, 2381,  523,  524
 7797, 1858, 2227, 1282, 2544
 7798, 2353,  236, 2368, 1392
 7799, 2447, 2177,  163,  737
 7800, 2176,  802, 2177,  162
 7801, 2177,  802,  163,  162
 7802, 2425,  801,  802,  821
 7803, 2176, 2651, 2180,  731
 7804, 2417,  820, 2425,  821
 7805, 1260,  822,  802,  803
 7806, 1895, 2444, 2484, 2240
 7807, 1511, 1798, 2268, 2639
 7808, 1996, 2386,  881, 2317
 7809, 1721,  360,  361,  374
 7810, 2098,  335, 2097,  348
 7811, 1789, 1996, 1787, 2317
 7812, 1255, 2064, 1644, 1641
 7813, 1284, 2650, 2406, 2408
 7814, 1444, 2060, 2659, 2185
 7815, 1806, 2439, 1275, 1804
 7816, 2311, 2113,  510,  110
 7817, 2527, 1993, 2634, 2015
 7818, 2511, 2641, 2512,  410
 7819, 2510, 1637, 2007,  668
 7820, 1214,    2, 1212,   18
 7821, 1797, 2363,  243,  256
 7822, 2548, 1282, 2408, 2641
 7823, 2581,  893, 1755, 1803
 7824, 1250, 1803, 1755, 1283
 7825, 2136, 1516, 2245,  272
 7826, 2449, 2520,  948,  949
 7827, 1329,  777,  778,  784
 7828, 1622,  882, 2178,  883
 7829, 1222, 1919, 1920, 1918
 7830, 1992, 1994, 1996,  920
 7831, 1637,  667, 1986,  661
 7832, 1165, 2562, 1358, 1359
 7833, 1998,  691, 1937,  692
 7834, 2172, 1010, 1030, 1029
 7835, 2172, 1030, 1010, 1011
 7836, 2362, 2229,  575,  574
 7837, 1487, 2626, 1766, 1736
 7838, 2230, 1029, 2229,  120
 7839, 2179, 2229,  121,  575
 7840, 1402, 1768, 1168, 1925
 7841, 2664, 2077,  256,  269
 7842, 1706, 1638, 1533, 1657
 7843, 1366, 2385, 2057, 2392
 7844, 1517, 2102, 1518, 2664
 7845, 2572, 1329, 1331, 1319
 7846,  268,  255,  254, 2077
 7847, 2075,  254, 2064, 1253
 7848, 2075, 1868, 2031,  266
 7849, 1063, 2075, 1865, 1868
 7850, 2347,  227, 2071,  226
 7851, 1274, 2436, 2522,  854
 7852, 1198, 1195, 2640, 1716
 7853, 1555, 1554, 2439,  857
 7854, 1275, 1806,  874,  875
 7855, 2439, 1971, 1806,  875
 7856, 2042,  835,  836,  855
 7857, 2042,  836, 2043,  855
 7858,  266, 2031, 2116, 1868
 7859, 2661,  170, 2663,  779
 7860, 1274, 2436,  854,  873
 7861, 2106,  167,  797,  168
 7862, 1934, 2662, 2107,  796
 7863, 1576, 1603, 1590, 1935
 7864, 1273, 1275, 1806, 1803
 7865, 1283,  892, 1757,  873
 7866, 2075, 1253,  267,  254
 7867, 2627,  984,  985, 1004
 7868, 2301, 2142, 1611,  486
 7869, 2554, 2103, 2389, 2390
 7870, 2621, 1004, 2519, 1023
 7871, 2331, 2307, 2326, 2308
 7872, 1875, 2420, 1873,  760
 7873, 2311, 2308,  504,   41
 7874, 1935,  834,  833,  814
 7875, 2280,  742, 2445, 2446
 7876, 1601, 1936, 1873, 2420
 7877, 1575, 1747, 1632, 1330
 7878, 2388, 2313,  772,  773
 7879, 2420,  767,  766,  760
 7880, 1601, 2128, 2424, 2420
 7881, 1962,  859, 1916,  860
 7882, 2060,  321, 1709,  320
 7883, 2237, 1788,  937,  918
 7884, 1957, 1458, 1163, 1958
 7885, 2063, 1709,  333,  320
 7886, 2063,  333, 1777,  332
 7887, 2023,  896, 2022,  897
 7888, 1779, 2056, 2339, 2457
 7889, 1144, 1159, 1204, 2290
 7890, 1990, 1704, 1159,  322
 7891, 2547, 2158,  843,  842
 7892, 1809, 1231,  877,  876
 7893, 1394, 1483, 1339, 1626
 7894, 1774, 1445, 2060, 2063
 7895, 1273, 1274, 1275, 1803
 7896, 1798, 2639,  976,  957
 7897, 2255, 2131,  960,  979
 7898, 2428,  995, 1995,  994
 7899, 1622, 1621,  902,  883
 7900, 1453, 1562, 1894, 1629
 7901, 1631, 1000, 2215, 2486
 7902, 1630, 2255, 2013, 1893
 7903, 2038,  973, 2067,  992
 7904, 1984,  177, 2222, 1620
 7905, 2255,  980, 1893,  979
 7906, 2329, 2255, 2634, 2132
 7907, 2258, 1719,  361,  362
 7908, 1684, 1761,  599, 2210
 7909, 1902, 1014, 1034, 1033
 7910, 1412, 1612, 2374, 1965
 7911, 1964, 2207,  604,  603
 7912, 2040, 2041, 2415,  818
 7913, 2128, 2041, 2418, 1601
 7914, 1758, 2151, 2465, 1707
 7915, 1875, 2418, 2128,  754
 7916, 1875,  753, 2418,  754
 7917, 2041,  797,  817,  816
 7918, 2425, 1260,  821,  802
 7919, 2415, 2657,  800,  799
 7920, 1699, 1693, 1696, 1697
 7921, 1812,  386, 2406,  385
 7922, 1698, 1699,  401,  400
 7923, 2015, 1523, 2635, 2329
 7924, 2482, 2640, 1192,  662
 7925, 2080, 2257, 2258, 2256
 7926, 1314,  470,  477,  476
 7927, 1390,  220, 1941,  207
 7928, 1667, 1494, 1150, 1495
 7929, 1558,  907,  887,  888
 7930, 1317, 1529, 1528, 1318
 7931, 2028, 2320, 2411,  927
 7932, 1504, 1756, 2152, 1583
 7933, 2028,  928, 2320,  927
 7934, 1316, 2411, 2197, 2351
 7935, 2546,  673,   61,  672
 7936, 2548,  411, 2641, 2408
 7937, 2546,  673,   62,   61
 7938, 2641,  411, 2512,  410
 7939, 2546,   62, 2513,  423
 7940, 2549,  672,  666,  667
 7941, 1554, 1231,  857,  858
 7942, 1809, 2439,  876,  895
 7943, 2281,  838, 1555,  837
 7944, 1866, 2185, 1444, 2659
 7945, 2311,   42, 2306,  197
 7946, 1969, 2023, 1970, 2022
 7947, 1915,  858, 2123,  859
 7948, 2152, 1583, 1756,  890
 7949, 2028, 2152,  908, 2321
 7950, 1580, 2351,  907,  908
 7951, 1558, 1580,  907,  888
 7952, 1529, 1318,  471,  472
 7953, 1812, 2225,  373,  360
 7954, 2384,  718,  725,  724
 7955, 1820, 2239,  710,  711
 7956, 1839, 1782, 2117, 2025
 7957, 2176, 2501, 1260,  803
 7958, 1442, 1914,  822,  841
 7959, 1049, 1453, 1050, 2486
 7960, 1514, 1509, 2639,  977
 7961, 1053, 1054, 1052, 1690
 7962, 2207, 2210,  604,  598
 7963, 2004, 2077,  269,  268
 7964, 2363, 1287,  243,  242
 7965, 1444, 1931, 2185, 2401
 7966, 2075, 1865,  267, 1253
 7967, 2060, 1445,  320, 2063
 7968, 1231, 1554, 1807, 2052
 7969, 1518, 2166, 2045,  270
 7970, 1780, 2382, 2196, 2570
 7971, 2470, 1951,  300,  313
 7972, 2241, 2244, 2242,  286
 7973, 1106, 1585, 1203, 1108
 7974, 1949,  553,  547,  548
 7975, 1947,  552,  546,  547
 7976, 2163,  148, 2648,  647
 7977, 2648,  148,  683,  149
 7978, 2648,  149,  683,  682
 7979, 2652,  809,  810,  829
 7980, 2537, 2162,  647,  646
 7981, 2652, 2162, 2647,  829
 7982, 1258, 1542,  723,  729
 7983, 2180, 2629, 2384,  724
 7984, 2651,  731, 2177,  737
 7985, 2282, 1266, 2425, 2445
 7986, 2176, 2651,  731, 2177
 7987, 1933, 2417, 2425, 1914
 7988, 2425, 2177,  802,  801
 7989, 2282, 1541, 1266, 2445
 7990, 2425, 2447, 2177,  801
 7991, 2385, 1137,  951,  932
 7992, 2047, 2045, 2005, 2004
 7993, 2401, 2407,  281, 2003
 7994, 2055, 1251, 1247, 1366
 7995, 2045, 2407,  282, 2048
 7996, 2157, 1159,  310, 2290
 7997, 2407, 2003,  268,  281
 7998, 1180, 1181, 1155, 1223
 7999, 1931, 2048, 2185, 2005
 8000, 2060, 1445,  307,  320
 8001, 2105,  728,  727,  721
 8002, 2394, 2393,  304,  317
 8003, 2083, 2081,  343, 2346
 8004, 2476, 2475,  708,  714
 8005, 1441, 2386, 1996, 2317
 8006, 2488, 2463,  720,  721
 8007, 1782,  345, 2024,  346
 8008, 1365, 1786, 1291, 2268
 8009, 1695, 1699, 2521, 1700
 8010, 1352, 1353, 1351, 1358
 8011, 1622, 2386, 2178,  882
 8012, 2335, 2109,  331,  332
 8013, 1767, 1596, 1570, 2030
 8014, 1290, 1177, 1169, 1178
 8015, 1638, 2421,  302,  303
 8016, 1804, 1971, 1806, 2439
 8017, 1189, 1281, 1682, 1192
 8018, 2360, 1519, 2352,  259
 8019, 2623, 2065, 2617,  545
 8020, 2399, 2469, 1947, 1948
 8021, 1147, 1326, 2586, 1669
 8022, 2586,  259, 1326,  258
 8023, 1950, 2244, 2241, 2136
 8024, 1213, 1683, 1207, 1212
 8025, 2244, 2416, 2242,  286
 8026, 2614, 1143,  298,  311
 8027, 1755, 1803,  893,  892
 8028, 2461,  991, 1010,  990
 8029, 2057,  949, 2392,  950
 8030, 2449, 2053, 2520,  949
 8031, 1977, 2449, 2009, 1506
 8032, 1755, 1757,  911,  910
 8033, 2581, 1806, 2448,  913
 8034, 2145, 2146, 2660, 2607
 8035, 2145,  113, 1713,  527
 8036, 2365, 1713,  114,  533
 8037, 2108, 2530, 1864, 2518
 8038, 2562,  864, 2178,  863
 8039, 1221, 2654, 1621, 1920
 8040, 1222, 1553, 1920, 1919
 8041, 1385,  881, 2386, 2317
 8042, 1622,  921, 1621, 1993
 8043,  387, 1700,  386, 1699
 8044, 2642, 2525, 1552,  644
 8045, 1815, 1816, 1814, 1782
 8046, 1992, 1994,  920,  921
 8047, 1802, 1751, 1752, 1995
 8048,  419, 2156, 2269,  406
 8049, 2261, 2404, 1939, 2481
 8050, 2480, 2557,   65,  676
 8051, 1998, 1889, 2001, 1846
 8052, 2264, 2538,  658,  664
 8053, 2261, 2263,  665, 2264
 8054, 2557,  677,   66,   65
 8055, 2374, 1613,  602,  608
 8056,  596, 2372, 2289, 2287
 8057, 1699,  401,  387, 2079
 8058, 1612, 1688,  613,  614
 8059, 1772,  428, 1773,  415
 8060, 1800, 1832, 1833, 1697
 8061, 1953,   15, 1690, 1894
 8062, 2080, 2256, 1828, 2154
 8063, 2164, 1506, 2121, 2320
 8064, 2318, 1492, 1493, 1742
 8065, 1351,  843, 2547, 2158
 8066, 2122, 2197,  927,  946
 8067, 2137, 2294, 2193,  203
 8068, 1492, 2318, 1495, 2305
 8069, 2305, 2318,  218,  219
 8070, 2484,  339,  340,  353
 8071, 1675,  352,  353,  366
 8072, 1677,  582,   55,   54
 8073, 2251, 2196, 1568, 2200
 8074, 1412, 1810, 2397, 1613
 8075, 2444, 2240,  351,  352
 8076, 1739,  577,  571,  572
 8077,  336,  335, 2097, 1990
 8078, 1710, 1702, 1708,  335
 8079, 1305, 2195, 2396, 2497
 8080, 2185,  295, 2048,  308
 8081, 1702,  335, 1704, 1708
 8082, 2465, 2659,  306, 2151
 8083, 2097, 1990,  337,  336
 8084, 1710, 1708, 2098,  335
 8085, 2366,  348, 1710, 2098
 8086, 1710, 2098,  348,  335
 8087, 1787,  939, 1786,  938
 8088, 1988, 1783, 2209,  592
 8089, 1699, 1693, 1697, 2079
 8090, 2059,  877, 1231,  858
 8091, 2268,  958, 2639,  957
 8092, 2534, 1358,  863, 1359
 8093, 2646, 2526, 2648,  682
 8094, 2288,  590, 2289,  596
 8095, 2640, 2007,  662,  663
 8096, 1352, 1359, 1356, 1355
 8097,  663, 2007, 2006, 2640
 8098, 1152, 1154, 1163, 1840
 8099, 2536, 1196, 2525, 1194
 8100, 2539, 2264,  658,  659
 8101, 2647,  848, 2653,  829
 8102, 1582, 1842, 1841, 1292
 8103, 2006, 2479, 2007,  669
 8104, 1931, 1705, 2060, 2048
 8105,  934, 1138, 2339, 2070
 8106, 2402, 2419,  542,  548
 8107, 2005, 2407, 2401, 2003
 8108, 2048, 2407,  282, 2185
 8109, 1555, 2304, 1554,  857
 8110, 1144, 1443, 1203, 1146
 8111, 2620, 2062,  537, 2061
 8112, 2265,  985, 1005, 1004
 8113, 2062, 2108,  532,  531
 8114, 2339,  934, 2070,  953
 8115, 2196,  954, 2070,  935
 8116, 2070, 1925, 2196, 2023
 8117, 1702,  321, 1705, 2254
 8118, 2057, 2385, 2056,  951
 8119, 2170, 2349, 2619, 2387
 8120, 1968, 1136, 1112, 1971
 8121, 1809,  876, 2439, 1231
 8122, 1133, 2208, 1670, 1493
 8123, 1776, 2024, 2025, 1777
 8124, 2465,  319, 2335,  318
 8125, 1777,  333, 1712,  346
 8126, 1360, 2562, 2462, 1918
 8127, 2052, 1809, 2059, 2022
 8128, 2114,  518, 1387,  517
 8129, 1795,  231, 1974, 1495
 8130, 1929, 2602, 1470, 2593
 8131, 1493, 2318,  220,  233
 8132, 2360, 1092, 2389, 2352
 8133, 2353,  522, 2370,  528
 8134, 1913, 2529, 2380, 2381
 8135, 2371, 2190,  535,  536
 8136, 2120,  235, 1391, 1392
 8137, 2586, 1670, 1669,  246
 8138, 2453,  564, 2432,   51
 8139, 2432,  564,   52,   51
 8140, 2472, 2432,   52,  327
 8141, 2613,  570,  564,  565
 8142, 2613,  565, 2431,  571
 8143, 2472, 2460, 2432,  327
 8144, 2613, 2452, 2454, 2432
 8145, 1126,  489,  483,  490
 8146, 2595, 1126,  484,  490
 8147, 1133, 1670, 2208, 1357
 8148, 2299,  192, 2298,  193
 8149, 1609,  488, 1128, 1863
 8150, 1124,  477, 1318,  478
 8151, 2053,  969, 2266,  968
 8152, 2252, 2520,  968,  967
 8153, 2534,  844, 1356, 1359
 8154, 2387, 2173, 2619, 2426
 8155, 2349, 2624,  550, 2066
 8156, 1086, 1092, 1669, 1357
 8157, 2627, 2265, 1004,  985
 8158, 2057,  970, 2054, 2053
 8159, 2017, 1500, 2248, 2267
 8160, 2374,  608, 1612, 1613
 8161,  999, 1966, 2486, 1952
 8162, 2078, 1719, 2079, 1700
 8163, 1511, 2639, 1514, 1509
 8164, 1509, 2639,  977,  976
 8165, 1834, 1988, 2209, 1650
 8166, 2038, 2067,  973, 2036
 8167, 1739, 2431,  572,  571
 8168, 2431,  565, 2049,  566
 8169, 2288, 2289, 1650, 1830
 8170, 2594,  583, 2292,  589
 8171, 1897, 2292,  583,  584
 8172, 1745, 2542,  771,  770
 8173, 1633, 1651, 2284, 2334
 8174, 2574, 2571,  789,  790
 8175, 1940, 2323,  833, 1935
 8176, 1319, 1321, 1328, 1322
 8177, 2560, 2312,  785,  784
 8178, 2140,  792,  793,  812
 8179, 2663,  171,  785,  779
 8180, 1319, 1324, 1327, 1635
 8181, 2575,  436,  443,  442
 8182, 2214,  427, 2205,   22
 8183, 2234, 1778,  176,  182
 8184, 1985, 1620, 1562,   17
 8185, 2214, 2205, 2222,  183
 8186, 1209, 1770, 1773, 1701
 8187, 2205,   22,  427,   23
 8188, 2657, 2447,  164,  743
 8189, 2445, 2651,  737,  736
 8190, 2445, 2425, 2410, 2447
 8191, 1541, 2651,  736,  730
 8192, 2410, 2657, 2447,  800
 8193, 2281, 2304, 1556, 1555
 8194, 1258, 2651, 1541,  730
 8195, 1990, 1826, 2097, 1158
 8196, 1042, 2195, 2497, 1891
 8197, 2228, 2277, 2366,  347
 8198, 1991, 2097, 1708, 1990
 8199, 2251,  954, 2195, 2570
 8200, 2195, 2497,  955,  956
 8201, 2237, 2200,  917,  936
 8202, 1263, 1266, 1933, 1557
 8203, 1258, 2629, 2180,  724
 8204, 2415, 2041, 2039, 2658
 8205, 1259, 1258, 1542, 2629
 8206, 1257, 1260, 2180, 2501
 8207, 1257, 2180, 1258, 2629
 8208, 1048, 1050, 1049, 1453
 8209, 1562, 1619,   17, 1620
 8210, 1760, 1772,  416, 1759
 8211, 1452,  640, 2515,  639
 8212, 1629, 2215,  633, 1894
 8213, 2060,  307, 2185,  308
 8214, 1866, 1865,  281,  280
 8215, 2185, 2407,  282,  281
 8216, 2185, 2048,  295,  282
 8217, 2060, 2185, 2048,  308
 8218, 1866, 2151, 1867,  293
 8219, 1445,  306, 2659,  307
 8220, 1963, 2200, 2022,  897
 8221, 1249, 1499, 1248, 1506
 8222, 2286,  189, 2193,  202
 8223, 1312, 2090, 2319, 2096
 8224, 1733,  230, 1975, 1287
 8225, 2088,  481,  474,  475
 8226,  216,  215, 1733, 2294
 8227, 1535, 1534, 1536,  869
 8228, 1317, 1460, 1588, 1312
 8229, 1655, 2284,  213, 1658
 8230, 1381, 1942, 2115, 2330
 8231, 1313,  483, 1124, 1126
 8232, 2168,  842, 2547,  861
 8233, 2327,  194,  195,  208
 8234, 1383, 2114, 1470, 1471
 8235, 1390, 2330, 1391,  221
 8236, 1742, 1941, 1493, 2318
 8237, 2300,  480,  487,  486
 8238, 2112,  505, 2331,  499
 8239, 1640,  734,  733,  727
 8240, 2393,  317,  316,  303
 8241, 1638,  290, 1686,  303
 8242, 2060, 1445, 2659,  307
 8243, 1774, 2060, 1709, 2063
 8244, 1444, 2060, 1445, 2659
 8245, 1711, 2063, 1712, 1777
 8246, 2335, 2109, 2434,  331
 8247, 1915, 2123, 1916,  859
 8248, 2304, 2123, 1915,  858
 8249, 1252, 1724, 1797, 1307
 8250, 1178, 2396, 2251, 1788
 8251, 1996,  882, 1622,  901
 8252,  901, 1622, 1996,  920
 8253,  938, 1787,  919, 1788
 8254, 2455, 1358, 1385,  862
 8255, 2167, 2317, 1170, 1169
 8256, 1884, 1154, 2227, 1840
 8257, 2521, 1812,  386, 2406
 8258, 1786, 1785, 1787, 1290
 8259, 2510, 2622,  668, 2007
 8260, 1693, 1209, 1701, 1770
 8261, 2226, 2310, 2227,  397
 8262, 2226,  384, 2310,  397
 8263, 2226, 2310, 1840, 2227
 8264, 1356, 2158,  824,  843
 8265, 1958, 2124, 1957, 1458
 8266, 2386, 1996, 1622, 1997
 8267, 2021, 1168, 1768, 1925
 8268, 2465, 1445,  306, 2659
 8269, 1203, 1121, 1204, 1400
 8270, 1504, 1976, 1465, 2321
 8271, 2332, 2594, 1895, 2292
 8272, 1702,  334, 1709,  321
 8273, 1712, 1709,  334,  333
 8274, 2234,  183, 2205,  182
 8275, 2214, 2553, 1773,  427
 8276, 2205, 1773,  428,  427
 8277, 2205, 2213,   23,  428
 8278, 2234,  182, 2205, 2213
 8279, 2552,  672,   61,    3
 8280, 2552,    3,  424,  425
 8281, 2552, 2546,   61,  672
 8282, 2479, 2622,  669,  675
 8283, 2528,  411, 2408,  398
 8284, 2537, 2162, 2536, 2611
 8285, 2163,  647, 2162,  147
 8286, 2162,  829,  810,  146
 8287, 2652, 2162,  829,  810
 8288, 2162,  146,  810,  147
 8289, 2537,  647, 2648,  653
 8290, 2079, 1699, 1700,  387
 8291, 2547,  862, 1386,  861
 8292, 1721, 2225, 1722,  360
 8293, 1782, 1812,  372,  359
 8294, 1050, 1049, 1966, 1051
 8295, 1980, 2141, 2221, 2187
 8296,  851, 1980, 1534, 1566
 8297, 1558, 1526, 1537, 1535
 8298, 2302, 1566,  851,  852
 8299, 1351, 2455, 2534, 1358
 8300, 1584, 2636,  871, 1566
 8301, 2586, 1326, 1668,  258
 8302, 1286,  254, 2064,  241
 8303, 1875, 1901,  759, 1877
 8304, 2375,  853, 2436,  872
 8305, 1604, 2044, 2040, 2043
 8306, 2236, 2233,  881, 2317
 8307, 2014,  371, 1816,  384
 8308, 2059, 1962,  859, 1916
 8309,  919, 1996, 2317, 1787
 8310, 1996,  900, 2317,  881
 8311, 2251,  916, 2023, 2200
 8312, 1963,  880, 2233,  899
 8313, 1171, 1176, 1169, 1170
 8314, 1963, 2236,  880, 1962
 8315, 2168, 2236, 1962,  860
 8316, 1839, 2024, 1782, 2025
 8317, 2014, 1814, 1816, 1782
 8318, 2109, 1777,  345,  332
 8319, 1840, 2014, 1816, 2310
 8320, 1623,  883, 2178,  864
 8321, 1919, 2523,  866,  847
 8322, 1621, 1224, 1993, 2527
 8323, 1819, 1823,  705, 1972
 8324, 2605,  693, 2604,  687
 8325, 1782, 1816,  371,  372
 8326, 2483, 1847, 1972,  698
 8327, 2345, 2343,  342,  355
 8328, 1707, 2394, 2393,  304
 8329, 1418, 1456, 1432, 1111
 8330, 2095, 2345, 2346,  356
 8331, 1782,  358, 2117,  345
 8332, 1458, 1456, 1814, 1457
 8333, 1275, 1274,  874, 1803
 8334, 1971,  914, 2448,  913
 8335, 2185,  281, 1866, 2401
 8336, 2185,  281, 2401, 2407
 8337, 1866, 2659,  293,  294
 8338, 2465, 2063, 2335,  319
 8339,  298, 2291,  297, 1143
 8340, 2416, 2391, 2412,  274
 8341, 2179, 1031, 2069,  122
 8342, 2349,  555, 2398, 2502
 8343, 1136, 2448, 1138, 1137
 8344, 2339, 2382, 2037,  972
 8345, 1738, 1739, 2487, 2431
 8346, 1065, 1215, 1278, 1246
 8347, 2173, 2426, 1028, 1027
 8348, 1959, 1103, 1614, 1916
 8349, 1839, 1782, 2024, 2228
 8350, 1110, 2024, 1777, 1712
 8351, 1240, 1366, 1247, 1251
 8352, 1844, 1341, 1845, 1823
 8353, 2014, 2117, 2346, 1457
 8354, 1351, 1349, 1386, 1384
 8355, 1430, 2434, 2083, 2082
 8356, 2517, 2477, 2430, 1973
 8357, 1200, 2611, 2296, 2491
 8358, 2064,  240, 1728,  241
 8359, 2041, 2044,  816,  817
 8360, 2375, 2636,  871, 2498
 8361, 1654, 1649,  187,  200
 8362,  215, 1733, 1729,  228
 8363, 2064, 2071, 1728,  240
 8364, 1255, 1252, 1286, 1641
 8365, 1285, 1729, 1287, 1286
 8366, 1098, 1497, 1660, 1095
 8367, 2157,  310, 1159,  309
 8368, 2231, 2625, 2184,  568
 8369,  950, 2053,  970, 2057
 8370, 1866, 1867,  280,  293
 8371, 1868, 1867, 2116,  279
 8372, 1868, 1867,  279,  280
 8373, 2465,  319, 1445, 2063
 8374, 1118, 1119, 1807, 1116
 8375, 1556, 2405, 2040, 2043
 8376, 2400,  855, 2522, 2043
 8377, 1807, 2439, 1555, 1554
 8378, 1807, 1554, 1231, 2439
 8379, 1681, 1483, 1867, 1396
 8380, 2534, 2455,  862, 1358
 8381, 2042, 1216, 2044, 2325
 8382, 1275, 2439,  875,  856
 8383,  875, 2439, 1275, 1806
 8384, 1583, 1504, 1465, 2321
 8385, 1973, 2483, 1972,  704
 8386, 1819, 1820, 1343, 1972
 8387, 2373, 2517, 2433, 2477
 8388, 2074, 1397, 1201, 2507
 8389, 1458, 2095, 1840, 1958
 8390, 1887, 2155, 2160, 1927
 8391, 1823, 1817,  705,  699
 8392, 1351, 2534, 2547,  843
 8393, 2101, 2473,  713,  707
 8394, 1954, 1998,  691, 1938
 8395, 2342, 2358,  277, 1653
 8396, 2344, 2094, 2081, 2124
 8397, 1850, 2149,  717, 2629
 8398, 1639, 2421, 2126,  302
 8399, 2609,  329, 2343,  328
 8400, 2335,  331, 2434,  318
 8401, 2465, 2335, 2394,  318
 8402, 1928, 1916, 2059, 1915
 8403, 1494, 2089, 1467, 2305
 8404, 1315, 1528, 2189, 2188
 8405, 2283, 2137, 2295, 2505
 8406, 1311, 1299, 1504, 1465
 8407, 1544, 1537, 1465, 1528
 8408, 1149, 2586, 1496, 1670
 8409, 1604, 1601, 2041, 2044
 8410, 2040, 2044,  817,  836
 8411, 1933, 2123, 1261, 2304
 8412, 2280, 2446,  748,  742
 8413, 2324,  816, 2044,  835
 8414, 2304,  838, 2417,  839
 8415, 1391, 1392,  235,  222
 8416, 2328, 2330,  209,  222
 8417, 2368, 2120,  235,  248
 8418, 2330, 2326,  209,  208
 8419, 1381, 2328, 1392, 1391
 8420, 2370, 1387, 2381,  523
 8421, 1422, 1252, 1287, 1796
 8422, 1652, 2585, 1535, 2314
 8423, 1316, 2351, 2321, 2411
 8424, 1588, 2319, 1679,  464
 8425, 1558, 2591, 2189, 1527
 8426, 2598, 2188, 2583, 2582
 8427, 1125, 2197, 2598, 2351
 8428, 2072, 1728, 2064, 2071
 8429, 2031, 2359, 2030,  252
 8430, 1899, 1900, 1901, 1877
 8431, 2357, 1574, 1848, 2542
 8432, 2316, 2347, 2071,  226
 8433, 2030, 2071, 2064,  240
 8434, 2042, 1217,  854, 2522
 8435, 1274, 2522,  855,  854
 8436, 2323,  833, 1935,  834
 8437, 1063, 1865, 2075, 1253
 8438, 1681, 2342, 2031, 2116
 8439, 1899, 2032, 2422, 1600
 8440, 2636, 1940, 1566, 1378
 8441, 1940, 2302,  833,  852
 8442, 1940,  814, 1935,  833
 8443, 1940, 2636, 1566,  852
 8444, 2388,  767, 2662,  773
 8445, 2323,  853, 2561,  852
 8446, 1849, 2438, 2343, 2124
 8447, 1110, 2024, 1712, 2277
 8448, 2082, 2343,  329,  342
 8449, 2083, 2434, 2109,  331
 8450, 1855, 2629, 1850, 2100
 8451, 1617, 2394, 2335, 2434
 8452, 1428, 1429, 1624, 1348
 8453, 1457, 2346, 1430, 2117
 8454, 2488, 2438, 2148,  721
 8455, 1617, 2434, 2082, 2393
 8456, 2247,  430,  431,   26
 8457, 2247,  430,   26,   25
 8458, 2247,   25,  179,  180
 8459, 2212,  405, 1793,  404
 8460, 2211, 2235,  174, 2161
 8461, 1759, 2246, 2235, 1778
 8462, 2219,  612, 1793, 2531
 8463, 2211, 1404, 2161, 1692
 8464, 1198, 1716, 2640, 2538
 8465, 1918,  864, 1623, 2178
 8466,  882, 1996, 1622, 2386
 8467, 1996, 2386,  882,  881
 8468, 1844, 2633, 1354, 1823
 8469, 1354, 1823, 2633, 1817
 8470, 1355, 1359,  844,  845
 8471, 2562, 1918, 2178,  864
 8472, 1222, 1623, 1280, 1918
 8473, 1358, 2386,  862,  863
 8474, 2547, 1386,  862, 2455
 8475, 2074, 1356, 2270, 1355
 8476, 2149, 2239,  716, 2438
 8477, 2129,  749, 2657,  165
 8478, 2657,  165,  743,  164
 8479, 2446, 2657,  749,  743
 8480, 2657, 2447,  800,  164
 8481, 2281, 2040, 2415,  818
 8482, 2445, 2425, 2447, 2177
 8483, 2114, 1470, 1471,  518
 8484, 1929, 2602,  507,  506
 8485, 2114,  517, 1387, 2115
 8486, 1929, 2603, 1930, 1470
 8487, 2114,  516,  511,  517
 8488,  499, 2603, 2112,  505
 8489, 1930,  108,  512,  511
 8490, 1929, 2309, 2593,  513
 8491, 2058, 1610,  493,  499
 8492, 1409, 1778, 1404, 2161
 8493, 1052, 1612, 1056, 2504
 8494, 1792, 1673,  391,  390
 8495, 1760,  417, 1759,  416
 8496, 1409, 1619, 1999, 1778
 8497, 1800, 1833, 1770, 1697
 8498, 1671,  365, 1675,  366
 8499, 1953,   16, 1619,  176
 8500, 1760, 1771,  403,  416
 8501, 1213, 1220, 1214, 1211
 8502, 1512, 1834, 1902, 2209
 8503, 1189, 2548, 1986, 1682
 8504, 1721, 1719,  374,  361
 8505, 2389, 2354, 2391,  261
 8506, 2586, 1326,  259, 1669
 8507, 1326, 2102, 1325, 1147
 8508, 2118, 2322, 2120,  234
 8509, 1389, 2322, 2208, 1493
 8510, 2118, 2208, 1670, 1357
 8511, 2360,  273, 2244,  272
 8512, 1351, 2534,  843, 1356
 8513, 2168, 2547,  842, 2158
 8514, 1950, 2242, 2241, 2244
 8515, 2136,  297, 2166,  284
 8516, 2237, 2251,  936, 1788
 8517, 1949, 2427, 2469,  553
 8518, 1973,  709, 2430,  703
 8519, 2477, 2345,  368,  355
 8520,  368,  367,  381, 2433
 8521, 2517,  702,  696,  703
 8522, 2373, 2517,  702,  696
 8523, 2476, 2438,  715,  709
 8524, 2476, 2124, 2343, 2438
 8525, 2476, 2438, 2430, 2124
 8526, 2110, 2631,  971,  970
 8527, 1351, 2158, 1356,  843
 8528, 1661, 2057, 2056, 2054
 8529, 1660, 2457, 2054, 2056
 8530, 2385, 2056,  951, 1137
 8531, 2631,  951, 2649,  952
 8532,  972, 2382, 2037, 2036
 8533, 2581, 1755,  912,  931
 8534, 1717, 1139, 2056, 1137
 8535, 2385,  950, 2392,  931
 8536, 2057, 2056,  970,  951
 8537, 1142, 1140, 1148, 1249
 8538, 2377,  969, 2053,  970
 8539, 1159, 2254,  309,  322
 8540, 1159, 1990,  322,  323
 8541, 1703, 1702, 1709, 1705
 8542, 2052, 2059, 1809, 1231
 8543, 1138, 2339, 1139,  933
 8544, 2060,  308, 1705,  321
 8545, 1190, 1214, 2259,    2
 8546, 1630, 1524, 1985, 2010
 8547, 1621, 1993,  921,  922
 8548,  902, 1622,  921, 1621
 8549, 1629, 1630, 1453, 1562
 8550,  922, 1621, 2654,  903
 8551, 2199,   11,  924,  905
 8552, 1191, 1986,  660,  661
 8553, 1919, 1920,  865,  866
 8554, 1810, 2533, 1678, 2503
 8555, 1922, 1412, 2397, 2374
 8556, 1197, 2640,  657, 2538
 8557, 1945, 1950, 2242, 1951
 8558, 2136, 2166,  271,  284
 8559, 2020, 2179, 2069, 2632
 8560, 1421, 1311, 1424, 1296
 8561, 2110, 2461, 2111,  990
 8562, 2613, 2431,  565, 2049
 8563, 1143,  310, 1159, 2290
 8564, 2613, 2454, 2049,  565
 8565, 1144, 1158, 1990, 1159
 8566, 1160, 1159,  311,  324
 8567, 2440,  350, 2097,  337
 8568, 1834, 1420, 1799, 1922
 8569, 2097, 2098,  348, 2099
 8570, 1143, 2290,  297,  310
 8571, 1055, 1965, 1051, 1056
 8572, 1411, 2216, 1692, 1688
 8573, 2276,  804, 2501, 2217
 8574, 2501,  822, 1260,  803
 8575, 2629, 2384,  724,  718
 8576, 2176,  725,  162,  731
 8577, 1855, 1351, 1349, 2158
 8578, 1997, 2386, 1967, 2178
 8579, 1193, 1198, 1195, 1197
 8580, 2217,  719,  161,  725
 8581, 1257, 1914, 1260, 2501
 8582, 2501, 2158,  822,  823
 8583, 2501,  803, 2217,  804
 8584, 1591, 1940, 1378, 2302
 8585, 2375, 2561,  852, 2636
 8586, 2329, 2013, 2255, 2011
 8587, 1250, 2581, 1755, 1803
 8588, 2029, 2375, 1757, 2498
 8589, 1532, 1628, 1340, 1533
 8590, 1252, 2363, 1287, 1796
 8591, 2029, 2636, 2375, 2498
 8592, 2075, 2030, 2064,  253
 8593, 2555, 2338, 2595,  485
 8594, 2598, 2197,  945,  926
 8595, 2411, 2320, 2122,  927
 8596, 1296, 1311, 1424, 1460
 8597, 1389, 1133, 1493, 2208
 8598, 1496,  232, 2318,  233
 8599, 1861, 1864, 2621, 2518
 8600, 2628, 2252,  986,  967
 8601, 2118, 1669, 1670,  246
 8602, 2378, 2371, 1550, 2381
 8603, 2530,  527, 1713,  533
 8604, 2350, 2250, 2369,  534
 8605, 1384, 1386, 2455, 1385
 8606, 1788, 1787,  919, 2167
 8607, 2059, 1928, 1961, 1916
 8608, 2063, 2335,  332, 2109
 8609, 2024,  345, 1777,  346
 8610, 1711, 1712, 2063, 1709
 8611, 2063, 1712,  333, 1709
 8612, 1710, 2366, 1712,  347
 8613, 1710,  347, 1712,  334
 8614, 2139,    8,  792,   92
 8615, 2198,  437, 2139,   92
 8616, 2575, 2139, 2198,  437
 8617, 2139,  792,    8,  172
 8618, 2336,  172, 2139,  791
 8619, 1066, 1363, 1069, 1068
 8620, 2246,   24,  429,   25
 8621, 2246,   25, 2247,  180
 8622, 2235, 2246, 2247,  180
 8623, 1759, 2246, 2213,  429
 8624, 1691, 1793, 1406, 2508
 8625,  909, 2152, 2028, 1505
 8626, 1299, 1583, 1504, 1465
 8627, 1754, 1279, 1283, 1757
 8628, 2164, 2121, 1854, 2122
 8629, 1149, 1669, 2586, 1670
 8630, 2028, 1505,  928,  909
 8631, 1492, 1496, 2318, 1493
 8632, 2147, 2607, 1021, 1020
 8633, 2243, 1443, 2046, 2290
 8634, 1671,  366,  379,  365
 8635, 1895, 1675, 2484, 1896
 8636, 1677,  353,   55,  366
 8637, 2594, 1677,  582,  588
 8638, 2484, 2485,  353,  340
 8639, 2484, 2444,  352, 2240
 8640, 2484, 1675,  352,  353
 8641, 1406, 1792, 1810, 2212
 8642, 2452, 2432,  327,  314
 8643, 1945, 1951, 2242, 1948
 8644, 1160,  312, 2458,  325
 8645, 2136, 2243, 2290, 2291
 8646, 2382, 2196,  954, 2070
 8647, 2631, 2649, 2339,  952
 8648, 2407, 2005, 2401, 2185
 8649, 2045, 2157,  296, 2166
 8650, 2555,  944, 2598,  945
 8651, 1863, 1912,  494,  495
 8652, 1546, 2348, 2065, 2620
 8653, 2598, 2197,  926, 2351
 8654, 2091, 2338,  944,  963
 8655, 1852,  945, 2197,  946
 8656, 1438, 1491, 1437, 1549
 8657, 2555, 2582, 2589,  485
 8658, 2164, 2121, 2122, 2320
 8659, 2518, 2062,  532,  538
 8660, 2197, 2411,  927, 2351
 8661, 2279, 2418,  747,  748
 8662, 2281, 2043, 2040,  837
 8663, 1555, 2439,  856,  857
 8664, 2039,  748, 2446, 2658
 8665, 1258,  730, 2180, 2651
 8666, 1890, 1958, 2076, 2433
 8667, 1884, 2226, 2160, 2429
 8668, 2544, 1926,  396,  409
 8669, 1998, 1847,  698,  692
 8670, 2510, 2622,  674,  668
 8671, 2478, 2479,  670,  676
 8672, 1927, 1926,  408,  395
 8673, 1890, 2155, 2429, 2160
 8674, 2068, 1160, 2443, 1158
 8675, 2450, 2626, 1735,  572
 8676,  561, 2184,  556, 2398
 8677, 2450, 1765, 2626, 2466
 8678, 1825, 1672, 1917, 1828
 8679, 2441, 2495, 2440,  350
 8680, 2257, 1719,  375, 2154
 8681, 2099, 2440,  350, 2097
 8682, 2441,  350, 2494, 2495
 8683, 2332, 1830, 1831, 2292
 8684, 1672,  365, 2240, 1675
 8685, 1047, 1045, 1829, 1046
 8686, 1671, 1673,  378, 1678
 8687, 1672, 2240,  365,  364
 8688, 1408, 1410, 1560, 1770
 8689, 1519, 1326, 1669,  259
 8690, 1515, 1514, 2130,  978
 8691, 1518,  271, 2166,  270
 8692,  258, 1326,  257,  271
 8693, 1757, 1756,  891,  910
 8694, 2450, 2431,  566,  572
 8695, 2578, 2049,  560,  566
 8696, 1608, 1563, 1775, 1398
 8697, 2441,  350, 2440,  337
 8698, 2398, 2427,  554,  560
 8699, 2170, 2619, 2111, 2426
 8700, 1790, 1146, 1448, 2291
 8701, 2038, 1485, 2171, 1892
 8702, 2212, 2218,  405,  392
 8703, 1407, 1073, 1075, 1560
 8704, 1917, 1673, 2435,  377
 8705,  607, 1405, 1613, 2508
 8706, 1671,  379, 1678,  378
 8707, 1074, 1055, 1416, 1413
 8708, 1136, 2448, 1137, 1251
 8709, 2157, 1159, 2254,  309
 8710, 2290, 1205, 2157, 2254
 8711, 1782, 2228,  346, 2024
 8712, 1515, 1514,  997, 1413
 8713, 2005, 2048, 2185, 2407
 8714, 1043, 1268, 1044, 1269
 8715, 1770, 1999, 1773, 1772
 8716, 1117, 1446, 1451, 1398
 8717, 2254, 2157,  309, 2048
 8718,  309, 2048,  308, 2254
 8719, 2060, 2048, 1705,  308
 8720, 2366, 1288, 1564, 2228
 8721, 2098, 1923, 2099, 2097
 8722, 2417, 1914,  821, 2425
 8723, 1266, 2425, 2445, 2651
 8724, 2446, 2657,  743, 2447
 8725, 1559, 2282, 1543, 1557
 8726, 2280, 1531,  735,  741
 8727, 2034, 2143,  763,  757
 8728, 2034, 2073, 2337, 2143
 8729, 1900,  758, 2143,  757
 8730, 1876,  765, 1878,  759
 8731, 2427, 2454,  559, 2049
 8732, 2470, 1948, 2399,  301
 8733, 1791, 2458, 2470, 2452
 8734, 2458, 2442,  325,  326
 8735, 2241, 1951,  299, 2242
 8736, 2454, 2049,  565,  559
 8737, 2453, 2470, 2452, 2454
 8738, 1739, 2431,  571, 2487
 8739, 1654,  201,  200,  187
 8740, 1654,  201,  187,  188
 8741, 1654,  188, 2286,  201
 8742, 1658,  215, 1728,  214
 8743, 1728,  214, 2347, 1658
 8744, 2285, 2193, 2294,  202
 8745, 2285, 2294,  215,  202
 8746,  227, 1728,  214, 2347
 8747, 1330, 1745, 1575, 1747
 8748, 2046, 1443, 1205, 2290
 8749, 1450, 2382, 1139, 2070
 8750, 1144, 1143, 1159, 2290
 8751, 2038,  972, 2588, 2037
 8752, 2339, 2382,  953, 2070
 8753, 2570, 2382, 2196,  954
 8754, 1204, 2290, 1159, 2254
 8755, 2339, 1139, 2382, 2070
 8756, 2144, 2278, 2509,  450
 8757, 1463, 2294, 2285, 2193
 8758, 2273,   31, 2278,  187
 8759, 2468,  445,  444,  438
 8760, 2278,  450,   32,   31
 8761, 2144, 2278,   32,  188
 8762, 2081, 2345, 2343,  342
 8763, 2344, 2345, 2477,  355
 8764, 2083, 2346,  344, 2117
 8765, 2344,  355, 2477,  354
 8766, 1411, 1409, 2161, 1690
 8767, 2344, 2124, 2476, 2430
 8768, 2344, 2474, 2475,  354
 8769, 2338,  944,  963,  100
 8770, 2202,  964, 2093,  983
 8771, 2367, 2338, 2091,  963
 8772, 2338,  101,  485,  100
 8773, 2589,  944,   99,  925
 8774, 1125, 2555, 2598, 2197
 8775, 1705, 2254,  321,  308
 8776, 1504, 1299, 1279, 1756
 8777, 1738, 2050, 2613, 2460
 8778, 1705,  308, 2048, 2254
 8779, 2194, 1136, 1970, 2070
 8780, 1710, 1709, 1702,  334
 8781, 2021, 1963, 2200, 2022
 8782, 1931, 2060, 2185, 2048
 8783, 2092, 2087, 2555, 2595
 8784, 1864, 2108, 2062, 2380
 8785, 1310, 1135, 1976, 1148
 8786, 2093, 2203, 2206, 1910
 8787, 2062, 2061,  531,  537
 8788, 2121, 2122,  946, 1854
 8789, 1125, 1315, 2351, 2598
 8790, 1692,  613, 1688,  619
 8791, 2211, 1404, 1801, 2235
 8792, 1560, 1771, 1824, 1760
 8793, 2216,   14, 2161,  174
 8794, 1612, 1405, 1613,  607
 8795, 1691, 1405,  613, 2508
 8796, 1416, 1730, 1413, 1966
 8797, 2215, 2515,  135,  639
 8798,  632, 1629, 1185, 2215
 8799, 2251, 2570, 2196,  954
 8800, 1404, 1759, 2235, 1778
 8801, 2023, 2196, 2070,  935
 8802, 1058, 1119, 1805, 1808
 8803, 1040, 1042, 2035, 1305
 8804, 1794, 2427, 1949, 2398
 8805, 2021, 2023, 2022, 2200
 8806, 1709, 1774, 1398, 2060
 8807,  934, 1138, 1970,  915
 8808, 1608, 1565, 1110, 1563
 8809, 1251, 1139, 1136, 1450
 8810, 1704, 1159,  322, 2254
 8811, 2123, 1261, 1915, 1916
 8812, 2059, 1915,  859,  858
 8813, 2281, 2304,  838, 2417
 8814, 1350, 2276, 1855, 2101
 8815, 2168, 1916,  841,  860
 8816, 1916, 2123,  840,  859
 8817, 1916, 1442,  841,  840
 8818, 2081, 2343, 1685, 2082
 8819, 1258, 1266, 1259, 1541
 8820, 1258, 1542, 1541, 1259
 8821, 2059,  859, 1962,  878
 8822, 1963, 2022,  878,  897
 8823, 1959, 1386, 2236, 1962
 8824, 2281,  837, 1555, 2043
 8825, 1775, 1445, 1446, 1774
 8826, 1063, 1396, 1681, 1867
 8827, 1258, 1260, 1266, 2651
 8828, 1274, 2522, 2400,  855
 8829, 1555, 1275, 2400,  856
 8830, 1555, 2043,  837,  856
 8831, 1112, 2448, 1971, 1136
 8832, 1533, 1640, 1531, 1599
 8833, 1477, 2043, 1556, 2400
 8834, 2415,  818, 2041,  799
 8835, 1532, 1543, 2279, 1599
 8836, 2554, 2352,  260, 2389
 8837, 1382, 1392, 2120, 1391
 8838, 2103, 1551, 2190, 2000
 8839, 2360, 2244,  273, 2416
 8840, 2241,  286, 2242,  299
 8841, 2103, 2390, 2000, 2190
 8842, 2104, 2360, 2245, 1092
 8843, 1946, 2419, 1947, 2414
 8844, 2062, 2380, 2108,  531
 8845, 1954, 1938,  691,  690
 8846, 2433,  393,  380,  394
 8847, 1200, 2646, 2491, 2605
 8848, 2160, 2429,  383,  382
 8849, 2477, 2344, 2430, 1973
 8850,  380, 2433,  367, 2373
 8851, 2155, 2160,  395,  382
 8852, 1511, 1822, 2130, 2639
 8853, 1513, 2496, 2130, 1822
 8854, 1562, 2220,   17,   16
 8855, 1268, 1040, 1044, 2035
 8856, 2396, 1798,  957, 2268
 8857, 1730, 1615, 1035, 1036
 8858, 2130,  977, 2639,  958
 8859, 1822, 2130, 2639,  958
 8860, 1386, 2236,  862, 2455
 8861, 2511,  410, 2544, 2641
 8862, 1209, 1770, 1999, 1773
 8863, 2226, 2227, 2160,  396
 8864, 2226,  397, 2227,  396
 8865, 2544, 2650,  397, 2227
 8866, 1926,  409, 2543,  408
 8867, 1607, 1960, 1928, 1103
 8868, 1722, 1812, 1577, 1815
 8869, 2406,  398, 2310,  385
 8870, 1858, 1716, 1886, 2007
 8871, 2103, 2390, 2414, 2391
 8872, 2620,  537, 2062,  538
 8873, 2402, 2419, 2190,  542
 8874, 2390, 2190, 2414,  541
 8875, 2016,  543, 2066,  549
 8876, 1473, 2380, 1913, 2529
 8877, 2031, 2116,  264,  265
 8878, 1594, 2366, 1721, 1722
 8879, 1707, 2393,  303,  304
 8880, 2116, 1867,  292,  279
 8881, 1900, 1901, 1877,  758
 8882,  265,  266, 2031, 2116
 8883, 1868, 2116,  266,  279
 8884, 2150, 2116,  292,  291
 8885, 2281, 2282, 2417, 2410
 8886, 2304, 1338, 1556, 1554
 8887, 1681, 2116, 1868, 1867
 8888,  734, 1531, 1542, 2105
 8889, 1634, 1720,  289,  276
 8890, 1215, 2522, 1274, 2436
 8891,  296, 2166,  283, 2045
 8892, 1255, 1843, 1767, 1253
 8893, 2422, 2032, 1901, 1627
 8894, 1803, 1283,  873,  892
 8895, 1755, 1505,  910,  929
 8896, 1754, 1283, 1755, 1757
 8897, 1755, 1757,  892,  911
 8898, 1255, 2064, 1286, 1253
 8899, 1573, 2143, 1598, 1878
 8900, 1117, 1107, 1451, 1931
 8901, 2631, 2339, 2457,  971
 8902, 2005, 2045, 2048, 2407
 8903, 2004,  268, 2003, 2077
 8904,  912, 2581,  893, 1755
 8905, 2392, 1662, 2449, 2057
 8906, 1518,  256, 2102,  257
 8907, 1246, 1217, 2375, 2561
 8908, 1658, 2285, 1726,  215
 8909, 1312, 2319,  470, 2096
 8910, 1489, 1652, 2579, 1978
 8911, 2029, 1757, 1756, 2498
 8912, 2363, 2077, 1253,  254
 8913, 1641, 1729, 1286, 1728
 8914, 1255, 1253, 1767, 2075
 8915, 1729, 1728,  228,  241
 8916, 1655,  201, 2285,  214
 8917, 1463, 2285, 1439, 2027
 8918, 2319, 1679,  463, 2584
 8919, 1729,  242, 1286,  241
 8920, 1756, 1757,  891, 2498
 8921, 1584, 1566,  871,  870
 8922, 1564, 2228, 2277, 2366
 8923, 1583, 1299, 2029, 1459
 8924, 1311, 1537, 1544, 1459
 8925, 1658,  215, 1726, 1725
 8926, 2498,  891,  871, 2375
 8927, 2375,  872, 1757,  891
 8928, 2636, 1566,  852,  871
 8929, 1248, 1755, 1506, 1505
 8930, 1940,  852, 2561, 2636
 8931, 1641, 2064, 1644, 1728
 8932, 1862, 2628, 2616, 2165
 8933, 1506,  928, 2121, 2320
 8934, 1473, 2529, 1836, 2108
 8935, 2378, 2371,  530,  536
 8936, 2093, 2616,  984,  965
 8937, 1854, 1852,  946,  965
 8938, 1089, 1503, 1100, 1606
 8939, 1931, 1451, 2060, 1705
 8940, 2055, 1247, 1137, 2581
 8941, 1520, 1516, 2136, 2166
 8942, 1950, 1448, 2243, 2291
 8943, 2631, 2054, 2056,  970
 8944, 1839, 2228, 2277, 1564
 8945, 2056, 2057,  970, 2054
 8946, 1516, 1519,  272, 1326
 8947, 1147, 2586, 1326, 1668
 8948, 1795, 1668, 1797,  243
 8949, 1248, 1755, 2392, 1506
 8950, 1506, 2320, 1505,  928
 8951, 1518, 1326,  257, 2102
 8952, 2045, 2407,  269,  282
 8953, 2449, 2008,  948, 2520
 8954, 1518, 1326, 1516,  271
 8955,  913, 1806,  893, 2581
 8956, 1797,  243, 1668,  256
 8957, 1728, 1286, 1641, 2064
 8958, 1797, 2102, 2664,  256
 8959, 2281, 1556, 2304, 1557
 8960, 2282, 2445, 2280, 1541
 8961, 1555, 2304,  857,  838
 8962, 2304, 2123,  858,  839
 8963, 2281, 2410, 2417,  819
 8964, 2425,  820, 2410,  801
 8965, 1933, 2417, 1914, 2123
 8966, 2417,  819, 2410,  820
 8967, 2417, 2123,  839,  840
 8968, 2281, 1555,  838, 2304
 8969, 2281, 2417, 1557, 2304
 8970, 1640,  740, 1531, 1599
 8971, 1640,  727, 1639, 2105
 8972, 2529,  525, 1836,  526
 8973, 1985, 1214, 1984,   18
 8974, 1211, 1184, 2259, 2630
 8975,  400, 1699,  401,  387
 8976, 1953, 1894, 1562,   16
 8977, 1078, 2015, 1525, 1080
 8978, 2532,  959, 2130,  958
 8979, 2409, 1581, 1578, 2408
 8980, 1700, 2225,  387,  386
 8981, 1365, 1290, 1177, 1291
 8982, 1798, 2497,  956,  975
 8983, 1985, 1214, 1211, 1206
 8984, 1399, 2098, 1710, 1708
 8985, 2495,  350, 2099, 2440
 8986, 1650, 1830, 1737, 1904
 8987, 2257,  362, 2258,  363
 8988, 2258, 2099,  349,  348
 8989, 1721,  348, 2258,  361
 8990, 1789, 1441, 1996, 2317
 8991, 1983, 2493, 1785, 1993
 8992, 2634,  941, 2493, 1993
 8993, 2635,  960, 2255, 2131
 8994, 2078, 2079, 2154, 1832
 8995, 1511, 1295, 1365, 1798
 8996, 1923, 2258, 2098, 2099
 8997, 1125, 1315, 2582, 1124
 8998, 1959, 2233, 2232, 1963
 8999, 1133, 1493, 1132, 1233
 9000, 2122, 2197, 2411,  927
 9001, 1852, 2122, 1853, 1854
 9002, 2122, 1854, 1852,  946
 9003, 2320, 1976, 2411, 2122
 9004, 1141, 1724, 1307, 1723
 9005, 1982, 2604,  693,  692
 9006,  393, 1954,  690, 1616
 9007, 1361, 1163, 1957, 1164
 9008, 1954, 1955, 1938, 1616
 9009, 2540, 1616, 2156,  406
 9010, 1886, 2479, 2543, 2622
 9011, 2262,  680, 2263,  681
 9012, 1555,  856, 2400, 2043
 9013, 1819, 1341, 1823, 1972
 9014, 1616,  690,   69,   68
 9015, 1601, 1597, 1936, 1603
 9016, 1170, 1102, 2317, 2233
 9017, 1643, 1767, 1570, 1644
 9018, 1459, 2636, 1584, 1566
 9019, 1729,  215, 1728, 1725
 9020, 2482, 1195, 1192, 2640
 9021, 1192, 2640, 2007,  662
 9022, 1200, 2611, 2537, 1197
 9023, 2462, 1359,  845,  864
 9024, 1222, 1714, 1918, 1280
 9025, 1288, 2228, 2366, 1722
 9026, 1047, 1511, 1508, 1752
 9027, 1700,  386, 1699, 2521
 9028, 1959, 1102, 2233, 2236
 9029, 1812, 2406, 2310,  385
 9030, 2228, 2277,  347,  346
 9031, 2366, 1721,  348, 2098
 9032,  347, 2366,  348, 1710
 9033, 1718, 1577, 2225, 1700
 9034, 1718, 1784, 2078, 1593
 9035, 2057, 2392, 2385,  950
 9036, 2057,  950, 2385,  951
 9037, 1249, 2392, 1367, 2449
 9038, 1724, 1517, 2004, 2664
 9039, 2005, 1769, 2401, 1931
 9040, 2581, 2448,  932,  913
 9041, 1862, 2008, 2017, 2252
 9042, 1724, 2664, 1254, 1797
 9043, 2100, 1855, 2384, 2101
 9044, 1441, 1385, 2386, 2317
 9045, 1967, 2562, 2178, 2386
 9046, 1351, 2547, 2534, 2455
 9047, 2562,  863, 1359,  864
 9048, 2462, 2562,  864, 1918
 9049, 2534, 1358,  862,  863
 9050, 2534, 1359,  863,  844
 9051, 1513, 1822, 1821, 2496
 9052, 1904, 1650, 2288,  590
 9053, 2179,  581, 2069, 2632
 9054, 2396,  956, 1798, 2497
 9055, 2209, 1783, 1902, 2210
 9056, 1783, 2210,  598,  599
 9057, 1932, 1902, 1033, 1014
 9058, 1486, 1452,  634,  640
 9059, 1434,  133, 1038, 1019
 9060, 1434,  133, 1019,  134
 9061, 2515,  640, 1434,  134
 9062, 1631,  999, 1952,  980
 9063,  623, 1433,  622, 1435
 9064, 1050, 1037, 2467, 1018
 9065, 1282, 2544, 2227, 2650
 9066, 2528,  400, 1698,  413
 9067, 1210, 1078, 1220, 1211
 9068, 1221, 1920, 1621, 1623
 9069, 1280, 2562, 1918, 2178
 9070, 1622, 1621,  883, 1623
 9071, 2406, 2408, 2521, 1578
 9072,  569, 2625,  574, 2229
 9073, 2172, 2229, 1029, 1030
 9074, 2231, 2625,  568,  569
 9075, 2461, 2361, 2426, 1009
 9076, 2377, 2110, 1663, 2111
 9077,  562, 2184, 2387,  556
 9078, 2426, 2361, 1028, 1009
 9079, 2230, 2361, 1029, 1028
 9080, 1211, 1214, 2630, 2259
 9081, 1701, 1698,  401,  414
 9082, 1696, 2528, 2409, 1699
 9083, 1687, 2409, 2528, 2408
 9084, 2528, 2409,  399, 2408
 9085, 1212, 2253,   19, 2550
 9086, 2548, 1682, 2512, 2549
 9087, 2521,  399, 2406,  386
 9088, 1789, 2317, 1293, 1441
 9089, 2521, 1700,  386, 2225
 9090, 1764, 1766, 2625, 2361
 9091, 1779, 2339, 2382, 2037
 9092, 1904, 1897,  584, 2292
 9093, 2035, 2382, 2570, 2036
 9094, 1779, 2382, 1106, 1585
 9095, 1041, 1302, 1047, 1295
 9096, 1779, 1585, 2037, 2382
 9097, 2588, 2457, 2037,  972
 9098, 2036,  953,  972, 2382
 9099, 1779, 2339, 2037, 2457
 9100, 1484, 2038, 1485, 1763
 9101, 2024,  346, 1712, 2277
 9102, 2167, 1963,  898, 2200
 9103, 2109, 2025,  345, 1777
 9104, 1797, 2077, 2363,  256
 9105, 1517, 2664, 1518, 2004
 9106, 1718, 2225, 1577, 1722
 9107, 1815, 1839, 1288, 2228
 9108, 1756, 1583, 2498,  890
 9109,  218, 1975,  217, 1974
 9110, 2586,  258, 1668,  245
 9111, 2038, 1892, 2171,  992
 9112, 2067,  993, 1892,  992
 9113, 2020, 1012, 1031, 1011
 9114,  584, 1650, 1905, 1904
 9115, 2229, 2625,  574, 2362
 9116, 2172, 2361, 1029, 2229
 9117, 2171, 1010, 2172, 2361
 9118, 1766, 2361, 1485, 2362
 9119, 2019,  574, 2362,  580
 9120, 1764, 2466, 2625, 2626
 9121, 2172, 1029, 2361, 1010
 9122, 2020, 1011, 1892, 1012
 9123, 1273, 1278, 1283, 1250
 9124, 1095, 1717, 1660, 1662
 9125, 1135, 1507, 1977, 1130
 9126, 1366, 2581, 2385, 2392
 9127, 1518, 2004, 2664,  269
 9128, 1724, 2004, 1254, 2664
 9129, 2004, 2077, 2664,  269
 9130, 2620,  544, 2066,  543
 9131, 2202, 2206, 1002, 2093
 9132, 1500, 2065, 2599, 2600
 9133, 2267,  987, 2252, 2266
 9134, 1519, 1087, 1669, 1326
 9135, 1795, 1796,  230,  243
 9136, 1059, 2005, 1956, 2047
 9137, 1506, 2449,  929, 2392
 9138, 1496,  245, 1495,  232
 9139, 1492, 1496, 1495, 2318
 9140, 1495,  245, 1668,  244
 9141, 2074, 1199, 1201, 2633
 9142, 1284, 2227, 2310, 2650
 9143, 1682, 2641, 2511, 2544
 9144, 1715, 1857, 1885, 1890
 9145, 1856, 1849, 1346, 2239
 9146, 1682, 2511, 2641, 2512
 9147, 1192, 1637,  661,  662
 9148, 1943, 2538, 1197,  658
 9149, 1197, 2538,  657,  658
 9150, 1201, 1199, 2074, 1360
 9151, 2640,  657, 2538,  663
 9152,  669,  663, 2007, 2006
 9153, 1077, 1081, 1784, 1577
 9154,  374, 1700,  387, 1719
 9155, 1786, 1785, 2268,  958
 9156, 2532, 1822, 1785,  958
 9157, 2532, 2496, 2130,  959
 9158, 1672, 1673, 1917,  377
 9159, 1821, 2496, 1822, 1785
 9160, 2268, 1822, 2639,  958
 9161, 2268, 1786,  958,  957
 9162, 2262, 2604, 1937,  686
 9163, 1281, 1192, 2007, 1682
 9164, 2611, 1194, 1196, 2536
 9165, 1921, 1360, 1166, 1199
 9166, 1937, 1938, 1939,  685
 9167, 2540, 1939, 1938,  685
 9168, 1885, 1889, 2001, 1890
 9169, 1819, 1820,  711, 1818
 9170, 2538, 1716, 1857, 1198
 9171, 1823,  698,  705, 1972
 9172, 1982, 2605,  694,  693
 9173, 1918,  865, 1623,  864
 9174, 2535, 2263, 2526,  681
 9175, 1220, 1179, 1223, 1213
 9176, 2539, 2537, 2526,  653
 9177, 2535,  681, 2526,  682
 9178, 1441, 1109, 1102, 1293
 9179, 2529, 2380,  524,  525
 9180, 2110,  971, 2588,  990
 9181, 2119, 2328, 1388, 2115
 9182, 1930,  512, 2114,  511
 9183, 1472, 2603, 2602, 1470
 9184, 1382, 2368, 1392, 2370
 9185, 2112, 1470, 2114, 2603
 9186, 1383, 2115, 2114, 1387
 9187, 2472, 2432, 2460, 2613
 9188, 2472,   53, 2485,  340
 9189, 2485,   53,  576,   54
 9190, 1677, 2485,   54,  353
 9191, 1677, 1675, 2485,  353
 9192, 2484, 2444,  339,  352
 9193, 2379, 2085, 2371, 2190
 9194, 1606, 1089, 1977, 1130
 9195, 2360,  272, 2244, 2245
 9196, 2529, 2380,  525, 2108
 9197, 2380,  525, 2108,  531
 9198, 2661, 1748, 2663,  794
 9199, 2663, 2312,  779,  785
 9200, 2560, 2312, 2663,  785
 9201, 2223, 2302, 2187, 2556
 9202, 2661, 2663, 2312,  779
 9203, 2336, 2560, 2663,  785
 9204, 2647,  645, 2525,  145
 9205, 2525,  867,  848,  144
 9206, 2525,  144,  848,  145
 9207, 1194,  650, 1552,  644
 9208, 2038, 2037, 2036,  972
 9209, 1200, 2491, 1201, 2605
 9210, 2284, 2316,  226, 2347
 9211, 1680, 2027, 2584, 2286
 9212, 2036, 1891, 2035, 1484
 9213, 1744, 1647,  781, 2567
 9214, 1655,  213, 1651,  200
 9215, 2568, 2468, 2275,  439
 9216, 2333,  211, 2174, 2084
 9217, 2315, 2337, 2084, 2316
 9218, 2072, 2071, 2316, 2347
 9219, 1161, 2334, 2135, 2174
 9220, 2319, 2297, 2584,  463
 9221, 2588, 2457,  972,  971
 9222, 1588, 1679,  458,  464
 9223, 2283, 2193, 2297, 2293
 9224, 2509,  457,  456,  450
 9225, 2144,   33, 2293,  189
 9226, 2283,  190, 2293,   34
 9227, 2293,  190,   33,   34
 9228, 2319,  469, 2096, 2297
 9229, 2211, 2216, 2161,  174
 9230, 2516, 1691, 1793, 1801
 9231, 1786, 1787, 1785,  939
 9232, 2396, 1788, 1786,  957
 9233, 1171, 1172, 1176, 1565
 9234, 2396,  957, 1798,  956
 9235, 1167, 1907, 1967, 1165
 9236, 1788, 2251,  936,  956
 9237, 2023, 2200,  916,  897
 9238, 1787,  920, 1994,  939
 9239, 2366, 1721,  347,  348
 9240, 1923, 1399, 1401, 2098
 9241, 1704,  322, 1990,  335
 9242, 1350, 1356, 2158, 2274
 9243, 2023, 2070,  934,  935
 9244, 1143, 2291, 2290, 1146
 9245, 1710, 1702,  335,  334
 9246, 1780, 2196, 2195, 2570
 9247, 1568, 2251, 2195, 2196
 9248, 1703, 1710, 1702, 1708
 9249, 2251, 2195,  956, 2396
 9250, 2110, 2588, 2461,  990
 9251,  335, 2097, 1990, 1708
 9252, 1720, 2272, 2395,  744
 9253, 2445, 2446,  742,  743
 9254, 1681, 1868, 2031, 1869
 9255, 1901,  751,  758, 1900
 9256, 1644, 2030, 2072, 2064
 9257, 2150, 2116, 1867,  292
 9258, 1707, 2150,  305,  304
 9259, 2151,  305, 2150,  292
 9260, 2032, 1625, 1600, 1899
 9261, 1175, 1117, 1398, 1569
 9262, 1612, 2504, 1688,  614
 9263, 1056, 1636,  616,  610
 9264, 1052, 1612, 2504, 1688
 9265, 1053, 1894, 1690,  628
 9266, 1522, 1415, 1952, 1049
 9267, 1800, 1697, 2079, 1832
 9268, 1184, 1180, 1183, 1219
 9269, 2014, 2095,  370, 2429
 9270, 2095, 1840, 1958, 2429
 9271, 2014, 2226, 2429,  383
 9272, 2014,  383, 2429,  370
 9273, 2209, 2289,  591,  597
 9274, 2588, 2171, 2461,  991
 9275, 1415, 1515, 2130, 2131
 9276, 2078, 1719, 2080, 2154
 9277, 1730, 1615, 2207, 2210
 9278, 1922, 2159, 2287, 2397
 9279, 2661, 2313, 2662,  773
 9280, 2040, 2044,  836, 2043
 9281, 1477, 2400, 2522, 2043
 9282, 2463, 1639, 2126,  726
 9283, 1542, 2149,  723,  722
 9284, 2149,  721, 2438,  722
 9285, 1538, 1640, 2105, 1531
 9286, 1617, 2335, 2109, 2434
 9287, 1107, 1931, 1205, 1204
 9288, 2282, 2417, 2410, 2425
 9289, 1554, 1338, 1556, 1479
 9290, 2095, 2477, 2345,  368
 9291, 2094, 2346, 2095, 2345
 9292, 2346,  344, 2117,  357
 9293, 2346, 2014, 2095,  357
 9294, 2094, 1958, 1458, 2124
 9295, 2094, 1958, 2095, 1458
 9296, 2241, 2614,  298,  299
 9297, 2448, 1112, 1251, 1136
 9298, 2134, 2245, 2136, 1516
 9299, 2290, 2136,  297, 2166
 9300, 2335, 2394,  318, 2434
 9301, 2281, 2282, 1557, 2417
 9302, 1617, 2394, 2434, 2393
 9303, 1959, 1963, 1961, 1962
 9304, 2465,  318, 2394,  305
 9305, 2357, 2084, 2333, 2334
 9306, 2347, 2071,  227, 1728
 9307, 2284, 2316, 2084,  225
 9308, 2284, 1651,  213,  212
 9309, 1745,  777, 1329,  776
 9310, 2284, 1659, 2347, 1658
 9311, 1747, 2542, 1874,  771
 9312, 1658,  214, 2347,  213
 9313, 2349, 2387,  556, 2624
 9314, 2171, 2361, 2461, 1010
 9315, 2245, 1950, 2136, 2244
 9316, 2050, 2454, 2613, 2452
 9317, 2613, 2454,  564, 2432
 9318, 2038, 2171, 2588,  991
 9319, 2613,  571, 2487,  570
 9320, 1739, 2487,  577, 1896
 9321, 2487, 1896,  576,  577
 9322, 1991, 1401, 1708, 2098
 9323, 1515,  979, 1952,  998
 9324, 2179, 1031,  122, 1030
 9325, 2487, 2485,  576, 1896
 9326, 1234, 1133, 1389, 2208
 9327, 1864, 2108, 2518, 2062
 9328, 1862, 2628, 2627, 2616
 9329, 2093, 1854,  965, 1852
 9330, 2165,  966, 2616,  965
 9331, 2017, 2252, 2520, 2266
 9332, 1746, 1976, 1853, 1316
 9333, 2202, 2367,  963,  982
 9334, 1383, 1913, 1382, 1387
 9335, 2379, 2371,  536, 2190
 9336, 2620, 2348,  544,  538
 9337, 1382, 2381, 2000, 2350
 9338, 1298, 1499, 1504, 1279
 9339, 2267, 2252,  987,  986
 9340, 2512, 2546,  423,  424
 9341, 2511, 2513,  422,  423
 9342, 1682, 2510, 2512, 2549
 9343, 2480, 2558, 2479,  675
 9344, 1682, 2510, 1637, 2007
 9345, 2545, 2552, 2546,  424
 9346, 2549, 2546,  672,  673
 9347, 2000, 2354, 2368, 2350
 9348, 2379, 2190,  536,  542
 9349, 2620, 2051, 2061,  537
 9350, 2378,  530, 2380,  531
 9351, 2378, 2380,  530, 2381
 9352, 2620, 1546, 1898, 2065
 9353, 1092, 2103, 2389, 2554
 9354, 2281, 2415, 2410,  819
 9355, 1901, 1877,  758,  759
 9356, 1805, 1058, 1808, 1065
 9357, 1703, 1710, 1709, 1702
 9358, 1901,  746,  752, 1589
 9359, 1543, 2279, 1599, 2280
 9360, 2078, 2079, 1719, 2154
 9361, 2465, 1707, 2151,  305
 9362, 2465, 1707,  305, 2394
 9363, 1533, 1657, 1908, 1600
 9364, 1985, 2220, 2630, 1214
 9365, 1639, 2105, 1706, 1640
 9366, 2282, 1543, 1266, 1541
 9367, 1686, 1707,  304, 2150
 9368, 1758, 1707, 2465, 2394
 9369, 1844, 1354, 2633, 1199
 9370, 2611, 2652, 2491, 2537
 9371, 1344, 1343, 1341, 1817
 9372, 2437,  157,  701,  695
 9373, 2633, 1397, 2506,  700
 9374, 1982, 2605,  693, 2604
 9375, 1355, 2507, 2464,  826
 9376, 1355,  825, 2270,  826
 9377, 1817,  700, 2506,  706
 9378, 1344, 2473, 2101,  707
 9379, 2490, 2492,  808,  809
 9380, 2492,  808,  809,  828
 9381, 1072, 1071, 1070, 1508
 9382, 1056, 2504,  614,  615
 9383, 1952, 1893,  980,  979
 9384, 2515, 1434, 2486, 1019
 9385, 2201, 1455, 2612, 2504
 9386, 1434, 1050, 1435, 1486
 9387, 1050, 2612, 1455, 2504
 9388, 2201,  621, 2504, 2612
 9389, 2279, 1600, 1599, 2422
 9390, 1626, 2150, 1686, 2116
 9391, 2422, 1589, 1599,  746
 9392, 1815, 1577, 1288, 1813
 9393, 2279,  747, 2422,  746
 9394, 1686, 2116,  278,  277
 9395, 2480, 2557,  420,   65
 9396, 2511, 2622, 2558, 2513
 9397, 1198, 1943, 1197, 1200
 9398, 2511, 2512,  423,  410
 9399, 2356,  250,   81,  237
 9400, 2337, 2084,  225,  224
 9401, 2356,   80,  762,   81
 9402,   80, 2376,  250,  756
 9403, 2375, 1217,  853, 2561
 9404, 2577, 2337, 2355, 2084
 9405, 2034,  251, 2364,  250
 9406, 2034,  750, 2376, 2364
 9407, 1684, 1730, 1510, 1512
 9408, 1684, 1902, 1761, 2210
 9409, 1761, 1783,  599, 2210
 9410, 1831, 2372, 2289, 1834
 9411, 1512, 2207, 1420, 1834
 9412, 2207, 2372,  597,  603
 9413, 2252, 2266,  968, 2520
 9414, 2252,  968, 2266,  987
 9415, 2267, 2451,  988, 2266
 9416, 2628, 2616,  966,  985
 9417, 2421, 2393,  316,  303
 9418, 2609, 2393,  329,  316
 9419, 2609, 2393, 2082,  329
 9420,  302, 1417,  732, 1639
 9421, 1243, 1061, 1644, 1255
 9422,  744,  738,   77, 1634
 9423, 2148, 2463,  721, 2105
 9424, 1561, 1832, 1825, 2435
 9425, 2435, 1832, 2154,  389
 9426, 2372, 1922, 1831, 2287
 9427, 2159, 2397,  595,  596
 9428, 1069, 1694, 1369, 1832
 9429, 2079,  388, 2154,  389
 9430, 1719, 1700,  387, 2079
 9431, 1511, 1514, 2639, 2130
 9432, 1270, 1482, 1766, 1485
 9433, 2015, 1219, 2634, 2527
 9434, 1551, 2051, 2085, 2018
 9435, 1500, 2451, 2267, 2266
 9436, 1448, 1146, 1443, 2291
 9437, 2349, 2502, 2016,  549
 9438, 2349,  549, 2066,  550
 9439, 1794, 2578, 2427, 2398
 9440,  560, 2466, 2398, 2578
 9441, 2245, 1516, 1519,  272
 9442, 1326,  272, 1516,  271
 9443, 1147, 1668, 1326, 2102
 9444, 1326,  257, 1668,  258
 9445, 1663, 1660, 1781, 2457
 9446, 1325, 1518, 1326, 1516
 9447, 2307, 2306,  210,  197
 9448,  500, 1912,  494, 2058
 9449, 2307, 2306,  510, 2115
 9450, 2331, 1610, 2303, 2326
 9451, 2328, 1392,  222,  223
 9452, 2303, 2301, 1610,  492
 9453, 1504, 1583, 1299, 1756
 9454, 2326, 2327,  195,  208
 9455, 2330, 2326,  208, 2327
 9456, 2333,  774,   83,   82
 9457, 2333, 2174,   83,  774
 9458, 2333, 2355,  768,   82
 9459, 2355, 2357, 2333,  768
 9460, 2357, 2334, 2333, 2135
 9461, 2555, 2598,  944, 2589
 9462, 1123, 2087, 1230, 1906
 9463, 2188, 2583,  479,  473
 9464, 1124,  478, 2188, 2582
 9465, 2598, 2583, 2589, 2582
 9466, 2589, 2582, 2583,  479
 9467, 2555,  485, 2595,  484
 9468, 1125, 2555, 2582, 2598
 9469, 2589,  944,  100,   99
 9470, 1738, 1739, 1896, 2487
 9471, 1802, 1902, 1834, 2209
 9472, 2019,  580, 1989,  579
 9473, 1989, 1905,  579,  585
 9474, 1753, 1905, 1988, 1650
 9475, 1269, 1276, 1270, 1044
 9476, 1904, 2288, 1830, 2292
 9477,  579,  578, 1905, 1736
 9478, 1303, 1295, 1178, 1365
 9479, 1904, 1737, 1734, 1897
 9480, 2353,  528, 2369,   45
 9481, 2369,  528,   46,   45
 9482, 2369,  249,  236,   46
 9483, 2368,  235, 1392,  236
 9484, 2370, 2381, 2350,  529
 9485, 2000, 2390, 2371, 2190
 9486, 1661, 2057, 2055, 2056
 9487, 2390, 2249, 2391, 2250
 9488, 2350, 2369,  528,  534
 9489, 2354, 2391,  261,  262
 9490, 2352,  259, 1519, 1669
 9491, 2554,  248, 2368, 2354
 9492, 2390,  540, 2250,  534
 9493, 2390, 2354, 2250, 2391
 9494, 2250, 2354,  262, 2391
 9495, 2250, 2354,  249,  262
 9496, 2250, 2369,   46,  249
 9497, 1780, 1925, 2196, 2070
 9498, 1039, 1046, 1047, 1300
 9499, 2450, 1487, 1735, 2626
 9500, 2019, 1485, 2362, 1766
 9501, 1504, 1499, 1505, 1756
 9502, 1739, 2487,  571,  577
 9503, 2450,  566, 2431, 2049
 9504, 1217, 2325,  854,  853
 9505, 1274, 2436,  873, 1283
 9506, 2533, 2397, 1613,  601
 9507, 2374, 1613, 2397,  602
 9508, 1069, 1832, 1800, 1694
 9509, 1289, 1290, 1292, 1291
 9510, 2218, 2514,  392, 1678
 9511, 1678, 1674, 1673, 1810
 9512, 2514,  594, 2503,  600
 9513, 2503, 2397,  601,  595
 9514, 1600, 2422, 1589, 1599
 9515, 2342, 1686,  277, 2116
 9516, 1686,  278, 2116,  291
 9517, 1908, 2342, 1600, 1626
 9518, 2272, 1589,  751,  745
 9519, 1638, 2421, 1639,  302
 9520, 1720, 1638, 1640,  738
 9521, 1897,  583, 2594, 1896
 9522, 1693, 1800, 1770, 1697
 9523, 1904, 1650,  590,  584
 9524, 2287, 2159,  596, 2397
 9525, 1859, 2494, 2256, 2495
 9526, 1947,  553, 2469,  552
 9527, 2399,  552, 2469,  558
 9528, 2427, 2049,  559,  560
 9529, 1945, 2469, 2470, 1948
 9530, 1947, 2413,  546,  552
 9531, 1945, 2242, 1946, 1948
 9532, 2453, 2469, 2454,  558
 9533, 2453,  564, 2454, 2432
 9534, 2427, 2469,  553,  559
 9535, 1511, 2639, 2268, 1822
 9536, 2515,  639,  134,  135
 9537, 2515,  134, 1000,  135
 9538, 2215,  633, 1452,  639
 9539, 2515,  134, 1434, 1019
 9540, 2035, 1305, 1042, 2195
 9541, 1185, 1630, 1631, 1629
 9542, 1486, 1434, 2515,  640
 9543, 2157, 2254, 1159, 2290
 9544, 1158, 1159,  324, 1990
 9545, 1204, 1704, 1705, 2254
 9546, 1144, 2290, 1146, 1143
 9547, 1159, 1990,  323,  324
 9548, 1270, 1482, 1481, 1766
 9549, 1779, 1717, 1139, 2056
 9550, 1730, 1035, 1510, 1016
 9551, 1615, 1636,  610,  611
 9552, 1615,  604, 2210,  605
 9553, 1042, 1305, 2497, 2195
 9554,  127, 1615, 1636, 1036
 9555, 2207, 1615,  604, 2210
 9556, 1051, 1615, 2467, 1636
 9557, 2297,  462, 2584,  463
 9558, 1306, 1641, 1285, 1252
 9559, 2283,  468,   34,  462
 9560, 1733, 1285, 1725, 1729
 9561, 2089, 2026,  205, 2305
 9562, 2298, 2295,  192, 2192
 9563, 2505,  468,  475,  474
 9564, 1809,  877, 2022,  896
 9565, 2023, 2022,  896, 1970
 9566, 1809, 1970,  895,  896
 9567, 1289, 1081, 1582, 1085
 9568, 2070, 1138, 1970,  934
 9569, 1344,  706, 2101,  712
 9570,  699, 1823,  698,  705
 9571, 2074, 2270, 2506, 2507
 9572, 1819,  711,  705,  712
 9573, 2042,  855, 2522,  854
 9574, 1215, 1283, 1246, 2436
 9575, 1477, 2405, 1556, 2043
 9576, 2375,  853, 1217, 2436
 9577, 1215, 1217, 2522, 2436
 9578, 2042,  854, 1217, 2325
 9579, 2401, 2003, 1769, 2005
 9580, 1769, 1865, 2003, 2401
 9581, 1601, 1602, 1597, 1603
 9582, 2042, 2325,  835,  854
 9583, 2400, 2043,  856,  855
 9584, 1804, 1119, 1805, 1971
 9585, 2026, 1975,  217,  218
 9586, 2295, 2137,  191, 2192
 9587, 2026, 2305,  218,  205
 9588, 2026, 2294,  203,  216
 9589, 2283,  191, 2137,  190
 9590, 2299, 1743, 1881, 2300
 9591, 1314, 1318, 1124,  477
 9592, 2090, 2319, 2096, 2297
 9593, 1974, 1495,  231,  218
 9594, 1733, 2294, 2026,  216
 9595, 2505, 2297,  469,  468
 9596, 2089, 1975, 2026, 2305
 9597, 2363, 1796,  243, 1287
 9598, 1791, 2427, 2454, 2469
 9599, 1794, 2398, 1949, 2502
 9600, 2578, 2049, 2427,  560
 9601, 1949, 2502, 2398,  554
 9602, 1794, 2578, 2049, 2427
 9603, 1295, 2497, 1305, 2396
 9604, 1381, 1942, 1232, 1383
 9605, 1879, 1611, 1610, 2327
 9606, 1472, 2593, 1471, 1470
 9607, 1518, 1517, 2004, 2045
 9608, 2378, 2085, 1550, 2371
 9609, 1390, 1942, 2330, 2327
 9610, 1949,  554, 2427,  553
 9611, 2419,  541, 2190,  542
 9612, 1737, 1829, 1753, 1045
 9613,  549, 2500,  554, 2502
 9614, 1791, 2427, 2049, 2454
 9615, 1862, 1547, 2017, 1606
 9616, 1834, 2209, 2289, 1650
 9617, 1512, 2209, 1902, 2210
 9618, 2209, 2289, 1650,  591
 9619, 2209,  592, 1783,  598
 9620, 2015, 1983, 2635, 1523
 9621, 1988, 2209,  591,  592
 9622,  591,  590, 2289, 1650
 9623, 2168,  861, 2236,  860
 9624, 2236, 1385,  862, 2455
 9625, 1386,  862, 2236,  861
 9626, 1102, 2236, 1385, 2317
 9627, 2024, 1777, 1712,  346
 9628, 1933, 1557, 2417, 2304
 9629, 2233, 2317,  900,  881
 9630, 1050, 1636, 2467, 1037
 9631, 2374,  602, 2372,  603
 9632, 2467, 1636, 1036, 1037
 9633, 1826, 2068, 1586, 1043
 9634, 1615, 1636, 1036, 2467
 9635, 1018,  999, 1966, 2486
 9636, 1416, 2372, 1964, 1965
 9637, 1049, 1952, 1631, 2486
 9638, 1388,  523, 2370,  522
 9639, 2353, 1388, 2370,  522
 9640, 1382, 1913, 2381, 1387
 9641, 2114, 1471, 1387,  518
 9642, 1128,  483, 1313, 1126
 9643, 2331, 2308,  498,  504
 9644, 1387, 1471,  524,  518
 9645, 2529, 1387, 1471,  524
 9646, 1913, 2529, 1387, 1471
 9647, 1383, 1387, 2114, 1471
 9648, 1698, 1699, 1697,  401
 9649, 2002, 2550, 2552,   20
 9650, 1701,  401, 1698, 1697
 9651, 2214,  427,   22,  426
 9652, 2214, 2002, 2253, 2553
 9653, 1770, 1701, 1771, 1773
 9654, 1771, 1772, 1773,  415
 9655, 2019, 2632, 1989,  580
 9656, 2020, 2172, 1485, 1892
 9657, 2195,  954, 1891, 2570
 9658, 1689, 1014, 1995,  995
 9659, 1989,  579, 1905, 1736
 9660, 2020, 2179, 1030, 1031
 9661, 1406, 2212, 2533, 2508
 9662, 1407, 1760, 1408, 1560
 9663, 2219,  418,  405,   59
 9664, 2219, 2508,  612,  606
 9665, 1801, 2247,  430,  431
 9666, 1801, 1759, 2246, 2235
 9667, 1801, 2246,  430, 2247
 9668, 2516,  612, 2508,  613
 9669, 1404, 1778, 2235, 2161
 9670, 1219, 2133, 2634, 2527
 9671, 2010, 2220, 1185, 2012
 9672, 1183, 2260, 2644, 2238
 9673, 1984, 1620,   17,  177
 9674, 2224, 2259,  624,  141
 9675, 2220,  624, 2012, 2630
 9676, 1683, 2548, 1189, 1581
 9677, 1480, 1482, 1485, 1892
 9678, 2199, 2644, 2260,  642
 9679, 2224, 2259,  141, 2260
 9680, 1849, 2124, 1820, 2438
 9681, 1628, 1657, 1706, 1533
 9682, 1257, 1258, 2180, 1260
 9683, 2516, 2211, 1731, 1692
 9684, 1801, 1759,  417,  430
 9685, 2235,  181, 2246,  180
 9686, 1731, 2216, 2125, 1692
 9687, 1408, 1778, 1999, 1772
 9688, 2516,  618, 1731, 2456
 9689, 1760, 1406, 1792, 1560
 9690, 1760, 1560, 1792, 1824
 9691, 1411, 2161, 1404, 1692
 9692, 1801, 2247, 2235, 2246
 9693, 1759, 2246,  429,  430
 9694, 1759, 2246, 1778, 2213
 9695, 1760, 1691, 1793, 1406
 9696, 2387, 2624, 2618,  557
 9697, 2387, 2459, 2231, 2426
 9698, 2459, 2426, 2461, 2361
 9699, 1764, 2398, 2184, 2466
 9700, 2349,  556, 2398,  555
 9701, 1945, 1587, 1791, 1794
 9702, 1188,  648, 2644,  649
 9703, 2015, 1219, 2329, 2634
 9704, 1716, 1192, 2640, 2007
 9705, 2654,  923, 2133,  922
 9706, 2078, 1694, 1784, 1700
 9707, 2643,  142,  886,  143
 9708, 1183, 1221, 2655, 1219
 9709, 1992, 1993, 1292, 1994
 9710, 1772, 2205, 2234, 1773
 9711, 1770, 1701, 1697, 1771
 9712, 1983, 1530, 1523, 2015
 9713, 1209, 1984, 2222, 1620
 9714, 1596, 2073, 2030, 2359
 9715, 1604, 1605, 2405, 1627
 9716, 2569, 2563, 2574, 1331
 9717, 1872,  765, 1874,  771
 9718,  759, 1877, 1878, 1876
 9719, 2531,  618, 2456,   60
 9720, 2456,  618,    4,   60
 9721, 2456,  618,   27,    4
 9722, 2516, 2456, 2531,  618
 9723, 1731,  179, 2456,   27
 9724, 2211, 2456,  179, 2247
 9725, 1209, 2222, 2553, 1773
 9726, 1701, 2553,  414, 1773
 9727, 2551, 2553,  426,  413
 9728, 2214, 2002,  184, 2253
 9729, 2214,  183, 2222,  184
 9730, 2528,  399, 2409, 1699
 9731, 1223, 1581, 1687, 1683
 9732, 1532, 1394, 1339, 1626
 9733, 1908, 1686, 1638, 1653
 9734, 2375, 2561,  853,  852
 9735, 1908, 1638, 1640, 1720
 9736, 1706, 1639, 1638, 2421
 9737, 1908, 1720, 1640, 1589
 9738, 1686,  291, 2150,  304
 9739, 2342, 1686, 1653,  277
 9740, 2342, 1720, 2272, 2358
 9741,  303, 1686, 1707,  304
 9742, 2396,  956, 1788,  957
 9743, 2251, 2396,  956, 1788
 9744, 2195,  956, 2396, 2497
 9745, 1114, 1112, 1450, 1251
 9746, 2225, 1578, 1700, 1577
 9747, 1786, 1785,  958,  939
 9748, 2423, 2126,   75,  726
 9749, 2126,  302, 2421,  315
 9750, 1908, 1533, 1638, 1657
 9751, 2126,  732,   76,   75
 9752, 2126,   76,  732,  302
 9753, 2463, 2105, 1639,  727
 9754, 1640,  733, 1639,  727
 9755, 1193, 1195, 1202, 1196
 9756, 2656, 2524,  886,  867
 9757, 1920, 1623,  865,  884
 9758, 1918, 1920, 1623,  865
 9759, 1222, 1918, 1920, 1623
 9760, 2654, 1621,  884,  903
 9761, 1346, 1957, 1973, 2124
 9762, 1345, 1349, 1348, 1855
 9763, 2100,  718, 2629,  717
 9764, 1855, 2629, 2100, 2384
 9765,  716, 2239,  710, 2438
 9766, 2236,  881, 2233,  880
 9767, 2167, 2200,  898,  917
 9768, 2232, 2167, 2200, 1963
 9769, 1962, 2236,  880,  860
 9770, 2034, 1598, 1899, 2033
 9771, 2143, 2542,  770,  764
 9772, 1587, 1790, 1146, 1448
 9773, 1597, 1878, 1573, 1598
 9774, 1483, 1866, 2151, 1867
 9775, 1573, 1878, 1872, 2143
 9776, 1876, 1877, 1875,  759
 9777, 1900, 2143,  758, 1877
 9778, 1878, 2143,  758,  764
 9779, 2143, 2542,  769,  770
 9780, 2612,  131,  635,  629
 9781, 2612,  131,  629,  132
 9782, 2201,  621, 2612,  132
 9783, 1052, 2504, 1454, 1688
 9784,  616, 1636, 2504,  622
 9785, 2034, 2033, 2364, 2359
 9786, 1727, 2072, 1658, 1728
 9787, 1767, 2075, 2031, 2030
 9788, 2034, 2143, 2577,  763
 9789, 2359,  265, 2031,  264
 9790, 2034, 2364,  251, 2359
 9791, 2072, 2030, 1570, 1571
 9792, 2243, 1443, 2290, 2291
 9793, 1576, 1603, 1218, 1590
 9794, 2531,   60, 2456,  431
 9795, 2219,  612, 2531,   59
 9796, 2531,  418,   59,   60
 9797, 1801,  418, 2531,  431
 9798, 1801, 2456, 2247,  431
 9799, 1407, 1406, 1760, 1560
 9800, 2216, 2125, 1692, 1688
 9801, 2516, 1793, 2508,  612
 9802, 2211,  179, 1731,  173
 9803, 1636, 2504,  622, 1050
 9804, 1051, 1050, 1636, 2467
 9805, 1049, 1966, 1952, 2486
 9806, 2504, 1688,  614,  620
 9807, 2201, 1688, 2504,  620
 9808, 2504,  622, 2612,  621
 9809, 1325, 1093, 1520, 1516
 9810, 2619, 1007, 2451, 1008
 9811, 2267,  986, 2265, 2252
 9812, 2267, 2265,  986, 1005
 9813, 2267, 2266,  988,  987
 9814, 1500, 2267, 2600, 2599
 9815, 2623, 2617, 2065, 2599
 9816, 2619, 2426, 1027, 1008
 9817, 2288,  596, 2159,  590
 9818, 2159, 2292,  590,  589
 9819, 2289, 1831, 1830, 2288
 9820, 1671, 2594, 2332, 1674
 9821, 2594,  589, 2503,  588
 9822, 2594, 1896,  583,  582
 9823, 1750, 1892,  993, 1012
 9824, 1751, 1932, 1981, 1995
 9825, 2020, 1485, 2172, 2362
 9826, 1481, 1989, 1905, 1736
 9827, 1932, 1762, 1032, 1033
 9828, 1761, 1932, 1902, 1033
 9829, 1482, 1481, 1989, 1751
 9830, 2461, 1009, 2111,  990
 9831, 2377, 2111, 1663, 2451
 9832, 2111, 2426, 1008, 1009
 9833, 2619, 2600, 2451, 1007
 9834, 2065, 2624,  550,  551
 9835, 2461, 2361, 1009, 1010
 9836, 2169, 2349, 2387,  556
 9837, 2619, 2600, 1007, 1026
 9838, 2170, 2426, 2459, 2387
 9839, 1917, 2257, 2154, 2256
 9840, 2257,  376, 2154,  375
 9841, 1718, 1721, 2225, 1722
 9842, 2257,  375, 1719,  362
 9843, 2459, 2461, 2171, 2361
 9844, 2110, 1663, 2111, 2461
 9845, 2231, 2459, 1764, 2361
 9846, 2461, 2111, 1009, 2426
 9847, 2038, 2588, 1763, 2037
 9848, 2248, 1546, 2062, 2348
 9849, 2599, 2519, 1024, 2617
 9850, 2518, 2365,  533, 1713
 9851, 2628,  985, 2627, 2616
 9852, 2599, 2519, 1005, 1024
 9853, 1861, 2628, 2252, 2265
 9854, 2628, 2252, 2265,  986
 9855, 2017, 2267, 2252, 2266
 9856, 2569,  434, 2564,   88
 9857, 2565,   87, 2564,  433
 9858, 2275, 1371,  438, 2468
 9859, 2564,  434,   87,   88
 9860, 2567,  788,  781,  782
 9861, 1161, 2567,  787,  781
 9862, 2191, 2563, 2571,  435
 9863, 1596, 2359, 2031, 2033
 9864, 1598, 1877, 1878, 2143
 9865, 1372, 1328, 1321, 1322
 9866, 1878, 2143, 1877,  758
 9867, 1492, 1494, 1467, 2305
 9868, 1246, 2375, 1217, 2436
 9869, 1601, 1873, 1876, 1875
 9870, 1829, 2332, 1859, 1895
 9871, 2494, 2495,  363, 2256
 9872,  350, 2099, 2258, 2495
 9873, 1370, 2258, 2495, 2256
 9874, 1917, 2494, 1859, 1672
 9875, 1830, 2289, 1650, 1834
 9876, 2291, 2290, 1146, 1443
 9877, 1895, 2594, 1675, 1896
 9878, 1904, 1830, 1897, 2292
 9879, 2000, 2371, 2350, 2381
 9880, 2378, 2380, 1550, 2061
 9881, 2390,  535, 2350, 2371
 9882, 2368, 2350, 2354, 2369
 9883, 2390, 2190,  541,  535
 9884, 2378,  536, 2379, 2371
 9885, 2371,  529, 2381,  530
 9886, 1319, 1329, 1741, 2572
 9887, 2316,  226, 2071,  239
 9888, 2357, 2315, 1574, 2143
 9889, 2073, 2316,  239,  238
 9890, 1727, 1728, 1641, 1644
 9891, 2284, 2347,  226,  213
 9892, 1658, 1645, 1655, 2284
 9893, 2577, 2143,  769,  763
 9894, 2337, 2084,  224, 2355
 9895, 2337, 2084, 2316,  225
 9896, 2357, 2315, 2143, 2577
 9897, 1992, 1994,  921, 1993
 9898, 1581, 1687, 2408, 2409
 9899, 1993, 2532, 1994,  940
 9900, 2521, 2225, 1578, 1700
 9901, 1826, 2099, 1308, 2097
 9902, 1994,  921, 1993,  940
 9903, 1076, 1073, 1410, 1067
 9904, 1558, 2189,  906,  907
 9905, 1558, 2189, 2591,  906
 9906, 2598, 2189,  907,  906
 9907, 2598,  907, 2189, 2351
 9908, 2591, 2583, 2188,  473
 9909, 1580, 2351, 2189,  907
 9910, 2598, 2583, 2189,  906
 9911, 1315, 2598, 2188, 2189
 9912, 1510, 1689, 1015, 1902
 9913, 1294,  994, 2067, 2497
 9914, 1752, 1294, 1995, 1751
 9915, 1514, 1509,  977,  996
 9916, 1991, 2098, 1708, 2097
 9917, 2193,  189, 2293,  190
 9918, 2293, 2584,  462,  456
 9919, 2193, 2297, 2293, 2584
 9920, 2293, 2297,  462, 2584
 9921, 2144, 2584, 2293,  456
 9922, 1812, 2228,  360,  359
 9923, 1722, 1288, 1594, 2366
 9924, 1513, 1511, 1822, 2130
 9925, 1722, 1812,  360, 2225
 9926, 1179, 2259, 1184, 2238
 9927, 1841, 1084, 1983, 1224
 9928, 1540, 1435,  130,  641
 9929, 1435,  635,  131,  130
 9930, 1486, 1435,  641,  635
 9931, 1435,  131, 2612,  622
 9932, 1966, 1050, 2467, 1018
 9933, 2201, 2612, 1455,  629
 9934, 1882, 1937, 2262, 2604
 9935, 2540,  685, 1938,  684
 9936, 2478, 2481, 2404,  671
 9937, 1886, 2479, 2269, 2543
 9938, 2544, 2543, 1926,  409
 9939, 2006, 2481,  670,  664
 9940, 2264,  665, 2481,  664
 9941, 2403, 2557, 2404,  677
 9942,  890, 2498,  891,  871
 9943, 2641, 2650,  398,  397
 9944, 2641,  398, 2650, 2408
 9945, 2544, 2227,  397,  396
 9946, 2544,  397, 2641,  410
 9947, 2544, 2641,  397, 2650
 9948, 1858, 2544, 2511, 2543
 9949, 1282, 2641, 2650, 2408
 9950, 1682, 2512, 2510, 2511
 9951, 1190, 1212,    2,  660
 9952,  666,  660, 1212, 1986
 9953, 1431, 1685, 2081, 1849
 9954, 1802, 1689, 1510, 1902
 9955, 1730, 1017, 1413, 1966
 9956, 2428, 1689, 1995,  995
 9957, 1047, 1295, 1511, 1798
 9958, 1932, 1988, 1987, 1783
 9959, 1689, 1015, 1902, 1014
 9960, 1761, 1762, 1932, 1033
 9961, 1802, 1902, 1932, 1689
 9962, 2073, 2071, 2030,  239
 9963, 2075, 2031, 2030,  253
 9964, 1904, 1650, 1905, 1737
 9965, 2030,  239, 2071,  240
 9966, 2030,  240, 2064,  253
 9967, 1668, 1151, 2102, 1147
 9968, 1311, 1299, 1537, 1459
 9969, 1246, 2561, 1218, 1217
 9970, 1217, 2436,  853,  854
 9971, 2323, 1217,  853, 2325
 9972, 1306, 1252, 1285, 1422
 9973, 1940, 2302, 2556,  833
 9974, 1872, 1575, 2542, 1874
 9975, 2375, 2436, 1757,  872
 9976, 1246, 1757, 2436, 1283
 9977, 1754, 1499, 1756, 1505
 9978, 1940,  833, 2323,  852
 9979, 2375, 2636,  852,  871
 9980, 2383, 2276, 2217,  804
 9981,  824, 2276, 2383,  804
 9982, 2217,  725, 2384,  719
 9983, 2276, 2217, 2501, 2384
 9984, 2501, 2276, 1257, 2158
 9985, 1442, 2158,  841,  822
 9986, 2176, 2177, 1260, 2651
 9987, 2569, 1331, 2574,  789
 9988, 2191, 2341,  441, 2559
 9989, 1416, 1051, 1964, 1615
 9990, 1612,  608, 1965,  609
 9991, 1964, 2372, 2207,  603
 9992, 1050, 1056, 1636, 2504
 9993, 1172, 1399, 1288, 1564
 9994, 1964, 1615, 1636,  610
 9995, 2199, 2260, 2471,  139
 9996, 2224,  624, 2630,  630
 9997, 2655, 2199, 2260,  924
 9998, 2224, 2630,  624, 2259
 9999, 2224, 2011, 2471, 2012
10000, 2255, 2011,  942, 2132
10001, 2255, 2011, 2013,  961
10002, 2255, 2013, 1893,  980
10003, 1893, 1522, 1523, 2131
10004, 1453, 2215, 1629, 1894
10005, 2255, 2132,  941, 2634
10006, 1515, 2131, 1952,  979
10007, 1407, 1409, 1408, 1404
10008, 2010, 2220, 2012, 2630
10009, 1459, 1567, 1871, 1566
10010, 1527, 2314, 2590,  467
10011, 2587,  869, 1535,  868
10012, 1558, 1536,  888,  869
10013, 1526, 1652, 1534, 1535
10014, 1558,  907, 1580, 2189
10015, 1957, 1163, 1458, 1164
10016, 1153, 1156, 1166, 1715
10017, 2155, 2160, 1927,  395
10018, 2269, 1926, 2543,  408
10019, 2478,  677, 2404, 2557
10020, 2160, 1926,  396, 2227
10021, 2511, 2543,  409,  422
10022, 1209, 1701, 1773, 2553
10023, 1210, 1213, 1683, 1207
10024, 1693, 1694, 1079, 1800
10025, 1619, 1620,  177,   17
10026,   16, 1894,   15, 1953
10027, 1953,  175, 2161,   15
10028, 1771, 1697, 1833,  402
10029, 1955, 1616,  393,  406
10030, 2478, 1888, 2269, 2557
10031, 1888, 1886, 2006, 2479
10032, 2478, 1939, 1888, 2540
10033, 2006, 2640, 2538,  663
10034, 2269, 2557,  419,  420
10035, 1715, 1884, 1887, 1890
10036, 1672, 1917, 1828, 1859
10037, 1673, 1678,  391,  378
10038, 1674, 2397, 2503, 2159
10039, 2332, 1831, 2159, 2292
10040, 1044, 1480, 1039, 1045
10041, 2494, 2240, 1672,  364
10042, 2212, 2218,  392, 1678
10043, 1824, 1792,  403,  390
10044, 1810, 2533, 2503, 2397
10045, 2311, 2307, 2306,  510
10046, 2311, 2113,  504, 2308
10047, 2311,  510, 2306,   42
10048, 2306,  510,   43,   42
10049, 2119, 2306,   43,  210
10050,  510,  516,  511, 2114
10051, 2307, 2328,  210, 2115
10052, 1677,  366, 1675,  353
10053, 1677, 2485,  582,   54
10054, 2594, 1677, 1675, 1896
10055, 1676, 1677, 2594,  588
10056, 2517, 2433, 2001, 1954
10057, 2498, 1757,  891, 2375
10058, 1440, 1646, 1635, 2182
10059, 1955, 1616, 2156, 1938
10060, 2474, 2517, 2373, 2477
10061, 1268, 1826, 1924, 1586
10062, 1955,  407, 1927, 2156
10063, 1955, 2156,  406,  407
10064, 2155,  394, 2433,  381
10065, 2365, 1713, 1023,  114
10066, 2365,  114, 1023,  115
10067, 2365, 1024,  115, 1023
10068, 2621, 1023, 2365, 1713
10069, 2519, 1004, 2627, 2265
10070, 2519, 1004, 2265, 1005
10071, 2530, 2108,  526,  532
10072, 2220, 1185,  625,  626
10073,  626, 1629, 1185,  632
10074, 1985,   18, 1984,   17
10075, 1631, 2215, 1453, 2486
10076,  639, 2215, 2515, 1452
10077, 1631, 2486,  999, 1000
10078,  631, 1185,  625, 2012
10079, 2255, 2131, 1523, 2635
10080, 1201, 2633, 2605, 1397
10081, 2262, 1939,  679,  685
10082, 1889, 1938, 1955, 2156
10083, 2261, 2263,  680,  151
10084, 1887, 1889, 1890, 1955
10085, 2540, 2156,  419,  406
10086, 1938, 2156, 1888, 2540
10087, 2480,  421, 2269, 2543
10088, 2623, 2600, 1026, 1025
10089, 2623, 1026,  117, 1025
10090, 2267, 2451, 2600, 1007
10091, 1760,  404, 1793,  417
10092, 1561, 1824,  390, 1792
10093, 1738, 2484, 1895, 2444
10094, 1158, 2097, 1990,  337
10095, 1826, 1158, 2440, 2097
10096, 1752, 1798, 1511, 1509
10097, 2441,  337, 2443,  338
10098, 1923, 1721, 1368, 1594
10099, 1160,  324, 1158, 1159
10100, 2240, 1675,  365,  352
10101, 2441, 2444,  351,  338
10102, 2444, 2442,  339,  338
10103, 1362, 1859, 1829, 1828
10104, 1738, 2460, 2444, 2442
10105, 1488, 1737, 1739, 1734
10106, 1503, 2449, 2053, 2520
10107, 1093, 2134, 1520, 1516
10108, 2053,  968, 2266, 2520
10109, 2377, 2053,  969, 2266
10110, 2053, 2520,  949,  968
10111, 2057, 2449, 2392,  949
10112, 2377, 2110, 2054, 1663
10113, 1975, 2305,  218, 2026
10114, 1273, 1065, 1278, 1250
10115, 1733,  216, 2026,  217
10116, 1588,  470, 2319,  464
10117, 2375, 2029, 1757, 1246
10118, 1978, 1327, 2340, 1437
10119, 2363, 1287,  242, 1286
10120, 2102, 1797, 1151, 1668
10121, 1460, 2319, 1680, 1679
10122, 1729, 1287,  242,  229
10123, 2472, 2460,  340, 2484
10124, 2472, 2613,  570, 2432
10125, 2460,  340, 2484,  339
10126, 2470, 2452, 2458,  313
10127, 2458, 2452,  326,  313
10128, 1160, 2442, 2443,  325
10129, 1160, 2443, 1158,  324
10130, 1482, 1989, 1481, 2019
10131, 2050, 2442, 2458, 2452
10132, 1830, 2288, 1831, 2292
10133, 2490, 2492, 2437,  808
10134, 1766, 1736, 1270, 1487
10135, 2296, 1919, 2462,  846
10136, 2646, 2648,  683,  682
10137, 2163, 2648, 2537,  647
10138, 1833, 1832, 1800, 1560
10139, 1752, 1995, 2428, 1689
10140, 1612, 1613,  608,  607
10141, 1055, 1612, 1965, 1056
10142, 1415, 1893, 1952, 2131
10143, 1515, 1514,  978,  997
10144, 1522, 1415, 1523, 2131
10145, 1966, 1952,  999,  998
10146, 2242,  287, 1948,  300
10147, 2453, 2399, 2469,  558
10148, 2614,  299, 1951,  312
10149, 2453,   50,  558,   51
10150, 1791, 1794, 1765, 2049
10151, 1945, 1949, 2427, 2469
10152, 2134, 1520, 1516, 2136
10153, 2244,  273, 2416,  286
10154, 2122, 1853, 1854, 2164
10155, 1128, 1126,  489,  483
10156, 1870, 2096,  476,  475
10157, 1173, 1121, 1925, 1780
10158, 1837,  502, 2601, 2592
10159, 1314,  471, 1317, 1318
10160, 1683, 1212, 1986, 2550
10161, 1698,  414, 2553,  413
10162, 2528, 1699,  400,  399
10163, 1829, 1895, 1737, 1830
10164, 2545, 2552,  424,  425
10165, 1300, 1041, 1302, 1047
10166, 2109,  345, 2025,  344
10167, 1718, 1593, 1594, 1577
10168, 1782, 2025, 2024,  345
10169, 1983, 2634, 2493, 1993
10170, 1776, 2109, 1777, 2025
10171, 1430, 2117, 2083, 2025
10172, 2083,  344, 2346,  343
10173, 1111, 1839, 1432, 1110
10174, 1315, 2351, 2598, 2189
10175, 2152,  908, 2321,  889
10176, 1584,  889, 1536,  870
10177, 1528, 1558, 1580, 2189
10178, 1652, 2314, 1548,  460
10179, 1489,  454,  460,  453
10180, 2509, 2584,  456,  457
10181, 2223, 1592, 1980, 2302
10182, 1656, 2181, 2509, 1654
10183, 1601, 1602, 2418, 1875
10184, 2572, 2341, 1324, 2563
10185, 2585, 1535, 2314, 2590
10186, 2413, 2249, 2414,  546
10187, 2412, 2413, 1947, 1948
10188, 2103, 2414, 2412, 2391
10189, 2103, 1946, 2104, 2416
10190, 1946, 2416, 2412, 2242
10191, 2414, 2419,  547,  541
10192, 2414, 2419,  541, 2190
10193, 1949, 1947,  547,  553
10194, 2283, 2193, 2293,  190
10195, 2286, 2193, 2293, 2584
10196, 1680, 2137, 2193, 2297
10197, 2193, 2294,  202,  203
10198, 1461, 1459, 1567, 1871
10199, 2137, 2026,  203,  204
10200, 2298,  192, 2295,   36
10201, 1642, 1297, 1871, 2029
10202, 1746, 2164, 1227, 1853
10203, 1313,  482, 1127,  476
10204, 1981, 1032, 2069, 1031
10205, 2179,  122, 2069,  581
10206, 1762, 1987, 2069,  587
10207, 2069, 2632,  581,  587
10208, 2138, 2139,  791, 2560
10209, 2575, 2560, 2139, 2138
10210, 1741, 2560, 2574,  784
10211, 2556,  832, 2187,  813
10212, 2302, 2187,  832,  851
10213, 2140,  830, 2580,  811
10214, 1980,  850, 2187,  851
10215, 2223, 2140, 2186, 2187
10216, 2579, 2576,  449,  448
10217, 2336,  793,  172,  171
10218, 2568, 2566, 2341,  440
10219, 2191, 2563,  435,  441
10220, 1940, 2302,  852, 1566
10221, 2579, 1978,  448,  454
10222, 1978, 2559, 1979, 2576
10223, 1490, 2182,  446,  452
10224, 1537, 1580, 1558, 1536
10225, 1558, 1580,  888, 1536
10226, 1580, 1536,  889,  888
10227, 2028, 2411, 2321, 2351
10228, 1580,  889, 1536, 1583
10229, 1578, 2408, 2521, 2409
10230, 1737, 1905, 1734, 1736
10231, 1179, 1192, 1189, 1191
10232, 1221, 1621, 2654, 2527
10233, 1188, 1552,  655,  649
10234, 1943,  658, 1197, 2539
10235, 2621, 2615, 2627, 1003
10236, 2615,  984, 2627, 1003
10237, 1863, 2204, 1909,  495
10238, 2597, 1838, 2367,  497
10239, 2518, 2365, 2519, 2348
10240, 2065, 2617,  545, 2348
10241, 1754, 1499, 1505, 1248
10242, 2627, 2616,  985,  984
10243, 2628, 2627,  985, 2265
10244, 2594, 1677, 1896,  582
10245, 1671, 1677,  366, 1675
10246, 1671,  366, 1676,  379
10247, 1671, 2332, 1672, 1674
10248, 2594, 2159,  589, 2292
10249, 1676, 2503, 2514,  594
10250, 1671, 1674, 1673, 1678
10251, 2332, 1672, 1859, 2240
10252, 2068, 1586, 1145, 1158
10253, 2503,  589, 2159,  595
10254, 1489, 1978,  454,  453
10255, 2029, 1583, 2498, 1756
10256, 2579, 1978, 2576,  448
10257, 2144,  456,   33,   32
10258, 2340,  447, 2559,  448
10259, 1980, 1566, 1567, 1534
10260, 2141, 2579, 2587, 1979
10261, 1537, 1584, 1583, 1536
10262, 1534, 1566,  870,  851
10263,  850,  851, 1980, 1534
10264, 2319, 2297,  463,  469
10265, 2169,  556, 2184, 2398
10266, 1661, 1660, 1663, 2054
10267, 2619, 1008, 2111, 2426
10268, 1679,  457, 2183,  458
10269, 2144, 2509, 1654, 2286
10270, 1680, 2193, 2584, 2297
10271, 2273, 2468, 1649, 2181
10272, 1632, 1741, 1592, 1330
10273, 2275, 2468,  438,  439
10274, 2027, 2286, 2509, 2584
10275, 1439, 1658, 1655, 2285
10276, 1654, 2278,  188,  187
10277, 1567, 1372, 1328, 1436
10278, 2182, 2183,  451,  452
10279, 2181, 2183, 2509,  451
10280, 1549, 1588,  458,  459
10281, 1491, 1679, 2027, 2183
10282, 1463, 2286, 2193, 2285
10283, 2458, 1951,  313,  312
10284, 2470, 2452,  313,  314
10285, 1951,  299, 2242,  300
10286, 1744,  782,  776, 1329
10287, 2568, 1324, 1635, 2341
10288, 1647,  781, 1161, 2135
10289, 1207, 2253, 2551, 2553
10290, 2548, 2545, 2549, 2512
10291, 2002,  426,   21,  425
10292, 2545, 2528,  412,  411
10293, 2002,    3,  425,   21
10294, 1144, 1145, 1146, 1586
10295, 1212,  666, 2550,   19
10296, 2551, 2545,  412,  425
10297, 2645, 2133,  923,  942
10298, 2133, 2527,  922,  941
10299, 2527,  922, 1621, 2654
10300, 2011, 2132, 2645,  942
10301, 2654, 1920,  885,  884
10302, 1079, 1208, 1618, 1525
10303, 2329, 2255, 2635, 2634
10304, 1184, 2224, 2259, 2630
10305, 2615, 2627,  984, 2616
10306, 2530,  532, 2518, 2108
10307, 1860, 2615, 2616, 2627
10308, 2093,  984, 2615,  983
10309, 1835, 2621, 2530, 2660
10310, 2608, 2146, 1836,  520
10311, 2518, 2621, 2519, 2365
10312, 1640, 1531,  740,  734
10313, 1533, 1589, 1640, 1599
10314, 1640,  732,  739,  738
10315, 1531,  741, 1599,  740
10316, 1849, 2438, 1820, 2239
10317, 1542, 2105,  728,  734
10318, 1640, 1599,  739,  740
10319, 2068, 1160, 1145, 2442
10320, 1720, 1417,  289, 1638
10321, 1639, 1417,  738, 1638
10322, 2009, 2164, 1506, 2121
10323, 2320, 1506, 1504, 1976
10324, 1087, 1092, 1519, 1669
10325, 1975, 1796, 1287,  230
10326, 1061, 1843, 1254, 1062
10327, 1795, 1495, 1668,  244
10328, 1795,  244, 1668,  243
10329, 1725, 1733, 1729,  215
10330, 2164, 1507, 1227, 1854
10331, 1504, 2152, 1505, 2320
10332, 2590,  887,   96,  868
10333, 2590,  887,   97,   96
10334, 2314, 2590,  467,  461
10335, 2579,  455, 2585,  461
10336, 1548, 1529,  466, 2314
10337, 2591,  467, 2590,   97
10338, 2322, 1391, 2120,  234
10339, 2118, 2352, 1357, 1669
10340, 1382, 2368, 2370, 2350
10341, 2120,  234, 1391,  235
10342, 2368, 2354,  248,  249
10343, 2008, 2520,  967,  948
10344, 2008, 2252,  967, 2520
10345, 2392, 1506, 1755,  929
10346, 1862, 1860, 2616, 2627
10347, 2586, 1495,  245, 1668
10348, 2303, 2308, 2326,  196
10349, 2303,   40, 2308,  196
10350, 2308,  504,   41,   40
10351, 2311, 2308,   41,  197
10352, 2058, 2112, 1942, 1610
10353, 2112, 2113, 2115, 2307
10354, 2526, 2537, 2648,  653
10355, 2526,  149, 2648,  682
10356, 2526,  659,  149,  150
10357, 2526,  150,  682,  681
10358, 2261,  671, 2481,  665
10359, 2535,  682, 2646,  688
10360, 1200, 2535, 2646, 2605
10361, 1943,  658, 2264, 2538
10362, 1942, 2330, 2327, 2326
10363, 1942, 2307, 2115, 2330
10364, 1881, 1390, 1879, 1941
10365, 2330,  222, 1391,  221
10366, 2119,   43,  516,   44
10367, 1906, 1909, 2204, 1851
10368, 2058,  500, 1912, 2603
10369, 1494, 1469, 2089, 1975
10370, 1463, 1733, 2294, 2026
10371, 1317, 1528, 1315, 1318
10372, 1149, 2586, 1495, 1496
10373, 1526, 1558, 1527, 2314
10374, 1150, 1467, 1148, 1132
10375, 1142, 1504, 1499, 1976
10376, 1137, 1138, 1139,  933
10377, 2649, 1139, 2339,  933
10378,  914, 1138, 2448,  933
10379,  915,  934, 2023, 1970
10380, 2443, 2444,  338, 2442
10381, 1204, 2254, 1705, 2048
10382, 1971, 1970, 1136,  914
10383, 2251,  935, 2023,  916
10384, 1764, 2361, 1485, 1766
10385, 1272, 1276, 1145, 2050
10386, 1794, 1765, 2578, 2466
10387, 1663, 1944, 2457, 1781
10388, 1095, 1093, 1096, 2134
10389, 2291, 2136,  298,  297
10390, 2291, 2136,  297, 2290
10391, 1791, 2050, 2458, 2452
10392, 2170, 2111, 1663, 2461
10393, 2155, 1927, 1955,  394
10394, 2155,  395, 1927,  394
10395, 2269, 2543,  421,  408
10396, 2160, 1926, 1927,  395
10397, 2269, 2156,  419, 2557
10398, 2478, 2480,  676, 2557
10399, 2491, 1397,  694,  695
10400, 2539, 2537, 2646, 2526
10401, 2153, 2648, 2646, 2537
10402, 2490, 2491, 2492,  809
10403, 2652,  828, 2492,  809
10404, 2535,  688, 2646, 2605
10405, 2344, 2474, 2430, 2475
10406, 2344, 2343,  355,  354
10407, 2345, 2477, 1958, 2344
10408, 2083,  330, 2434,  331
10409, 2083,  331, 2109,  344
10410, 2345,  343, 2346,  356
10411, 1431, 1430, 2081, 1685
10412, 1834, 2207, 2372, 2289
10413, 1802, 1988, 1932, 1783
10414, 1075, 1922, 1412, 1810
10415, 2207, 2209,  597, 2289
10416, 2207, 2289,  597, 2372
10417, 1568, 1168, 2237, 2200
10418, 2068, 2444, 2443, 2442
10419, 1169, 2167, 1787, 1788
10420, 1788,  938, 1786,  957
10421, 1788, 1787, 1786,  938
10422, 1178, 2251, 2396, 2195
10423, 2200, 2251,  936, 2237
10424, 1542,  728, 2105,  722
10425, 2423,  315, 2126, 2421
10426, 1706, 2463, 1685, 2105
10427, 1542, 2149,  722, 2105
10428, 1849, 2239, 1850, 2149
10429, 1542,  735, 1531,  734
10430, 2198,   92, 2139,  792
10431, 2198,  811,   93,   92
10432, 2443, 1158,  337, 2440
10433, 2140, 2186,  812,  793
10434, 2580,  443, 2198,   93
10435, 2575, 2191, 2560, 2138
10436, 2191, 2138, 2571,  790
10437, 2336,  792, 2198, 2139
10438, 1779, 2339, 1139, 2382
10439, 2382,  953,  972, 2339
10440, 1779, 2339, 2056, 1139
10441, 2649, 1139, 1137, 2056
10442, 2649, 1137,  933,  932
10443, 1138, 1139, 2339, 2070
10444, 2339,  972, 2037, 2457
10445, 2339, 2457,  971,  972
10446, 2631, 2339, 2056, 2457
10447, 2060, 2185,  307, 2659
10448, 1807, 1809, 2439, 1231
10449, 1809, 2059, 2022,  877
10450, 1809, 1970, 1971,  895
10451, 1968, 1809, 1970, 1971
10452, 1875,  754, 2128,  760
10453, 2127,  167, 2106,  761
10454, 2107,  816,  796,  797
10455,  759, 1873, 1875, 1876
10456, 1601, 1876, 1602, 1875
10457, 1597, 1873, 1936, 1874
10458, 2323, 2324, 2325,  834
10459, 1603, 2324, 2044, 2325
10460, 1576, 1936, 1597, 1603
10461, 1573, 2542, 1872, 1575
10462, 1934, 2107,  815,  796
10463, 1936, 2107, 2324, 1935
10464, 2324,  835, 2044, 2325
10465, 2324, 2325,  834,  835
10466, 1936, 2420, 2424, 2107
10467, 1601, 2041, 2044, 2424
10468, 2041, 2044, 2424,  816
10469, 2127, 2420, 2128,  761
10470, 2284, 2334, 1651, 2175
10471, 1633, 1647, 1651, 2334
10472, 2271, 1648,  198,  185
10473,  198, 2271, 2174, 1648
10474, 1645, 1655, 1439, 1658
10475, 1596, 1570, 1571, 1572
10476, 1648, 1649,  199,  186
10477, 1648, 1647, 2275, 1161
10478, 2568, 1646, 2468, 2182
10479, 1645, 1656, 1439, 1655
10480, 1327, 2559, 2340, 2341
10481, 2072, 2316, 1571, 1659
10482, 2284, 1659, 2316, 2347
10483, 2175,  198, 2174, 1651
10484, 2079, 1800, 1694, 1693
10485, 2443,  325, 2442,  338
10486, 2079, 1719,  388,  387
10487, 1523, 2496, 2635, 2131
10488, 2079, 1832,  402,  389
10489, 2079,  389, 2154, 1832
10490, 1719,  388, 2154, 2079
10491,  375, 1719,  388, 2154
10492, 2643, 2644, 2656, 2655
10493, 2524,  886,  867,  143
10494, 2524,  867,  144,  143
10495, 2524, 2525,  144,  867
10496, 1221, 2655, 2654, 2656
10497, 1356, 1355,  825, 2270
10498, 1352, 1354, 1356, 1350
10499, 1351, 2455, 1384, 1386
10500, 1356, 1355, 1359,  844
10501, 1351, 1358, 1353, 2455
10502, 2625, 2626, 2466,  567
10503, 2450,  566, 2466,  567
10504, 2450, 1735, 1487, 2431
10505, 2362, 2172, 2229, 2361
10506, 2019,  574,  573, 1766
10507, 1766, 2019,  574, 2362
10508, 1115, 1119, 1122, 1112
10509, 1747, 2313, 1748, 2312
10510, 1576, 1632, 1874, 1936
10511, 1935, 2324,  834,  815
10512, 2107, 2324, 1935,  815
10513, 1940, 2561, 1590, 2636
10514, 2169, 2459, 2184, 2387
10515, 2020, 2632, 2019, 2362
10516, 1485, 2361, 2171, 2172
10517, 2171, 1011, 2172, 1010
10518, 2046, 2045, 2157, 2048
10519, 2157, 2290,  310,  297
10520, 2443,  337, 1158,  324
10521, 2045,  296, 2157,  295
10522, 1160, 2443,  324,  325
10523, 2166, 2157,  296,  297
10524, 1090, 1098, 1096, 1099
10525, 1622, 1621, 1224, 1993
10526, 1621, 1920,  884, 1623
10527, 1621,  922, 2527, 1993
10528, 1621, 1623,  884,  883
10529, 1622, 1623,  883, 2178
10530, 1749, 1751, 1482, 1750
10531, 1546, 2062, 2620, 2061
10532, 1861, 2062, 2248, 2018
10533, 1368, 1301, 2099, 1308
10534, 2062,  531, 2061, 2380
10535, 2530, 1836, 2146,  526
10536, 1547, 2018, 1861, 2248
10537,  294, 2185,  281, 1866
10538, 1895, 1897, 1896, 1739
10539, 1488, 1046, 1045, 1276
10540, 1866,  293, 2659, 2151
10541, 1804, 1275, 1555, 2439
10542, 1865, 2401,  281, 2003
10543, 2390, 2249, 2414, 2391
10544, 2249, 2391,  262,  275
10545, 2249, 2250,  540,   47
10546, 2249, 2250,  262, 2391
10547, 2514, 1678,  379,  392
10548, 1676,  379, 2514, 1678
10549, 2533, 2503, 2514, 1678
10550, 2218, 2514, 2533,  600
10551, 2184, 2398,  561, 2466
10552, 2625,  567, 2184,  568
10553, 1764, 2184, 2625, 2466
10554, 1498, 2349, 1898, 1501
10555, 2184, 2466,  561,  567
10556, 2459, 2361, 2231, 2426
10557, 1484, 2067, 2036, 1891
10558, 2231,  562, 2387,  563
10559, 2231, 2229, 2625,  569
10560, 2170, 2461, 2426, 2111
10561, 2170, 1663, 1944, 2461
10562, 1785, 2532, 1994, 1993
10563, 2532, 2493, 1993, 1785
10564, 1983, 2496, 2493, 2634
10565, 2635, 2496,  960, 2131
10566, 2493, 2634, 2496,  960
10567, 2496,  959, 2493,  960
10568, 2635, 2255,  960, 2634
10569, 1811, 1284, 2310, 2406
10570, 1304, 1924, 1826, 1401
10571, 1218, 2323, 2325, 1217
10572, 1978,  447, 1490, 2340
10573, 2029, 1871, 1642, 1218
10574, 1725, 1464, 1726, 1462
10575, 1751, 1995, 1981, 1750
10576, 1988, 1905,  585, 1650
10577, 2020, 1981, 1012, 1750
10578, 1802, 1783, 1932, 1902
10579, 2020, 2172, 1892, 1011
10580, 1988, 1650,  585,  591
10581, 1987,  593, 1783,  592
10582, 1987,  586, 2632,  587
10583, 1987, 1981, 2632, 1989
10584, 2262, 1937,  685,  686
10585, 2261, 2262,  679,  680
10586, 2261, 1939, 2262, 2481
10587, 1889, 2156, 1888, 1938
10588, 1937, 1938,  685,  691
10589, 1998, 1938, 1937,  691
10590, 1882, 2262, 1939, 2481
10591, 1887, 1927, 1888, 2156
10592, 2606,  105,  514,  106
10593, 2309,  508, 2606,  106
10594, 2606,  105,  515,  514
10595, 1234, 1389, 1133, 1233
10596, 2601,  502, 1838,  503
10597, 1851, 2202, 2091, 2093
10598, 1837, 1838, 2601,  502
10599, 2530,  526, 2146,  527
10600, 1910, 2615, 1835, 2660
10601, 2607, 1002, 2660, 1021
10602, 1902, 1684, 1034, 1015
10603, 2207,  598, 2209, 2210
10604, 1964, 1965,  603,  609
10605, 1416, 1964, 2372, 2207
10606, 1964,  603, 1965, 2372
10607, 1420, 1834, 2207, 2372
10608, 1514, 1413, 1510,  997
10609, 1178, 2396, 1788, 1786
10610, 2428, 2497,  975,  994
10611, 1295, 2396, 1798, 2497
10612, 2098, 1923, 2366, 1721
10613, 1204, 1704, 2254, 1159
10614, 1302, 1364, 1070, 1365
10615, 2396, 1786, 2268,  957
10616, 2495, 2099, 1301, 2440
10617, 2179, 2229, 2362, 2172
10618, 1766, 1764, 2626, 1487
10619, 1351, 1386, 1349, 2547
10620, 1538, 2149, 1429, 1259
10621, 2383, 2217, 2384,  719
10622, 2383,  824,  805, 2274
10623, 2625, 2184,  567, 2466
10624, 1764, 1763, 1485, 2361
10625, 2625, 2626,  567,  573
10626, 2625, 1766, 2626,  573
10627, 1485, 2171, 1892, 2172
10628, 2361, 1763, 1485, 2171
10629, 1802, 2209, 1783, 1902
10630, 1753, 1834, 1830, 1650
10631, 1753, 1988, 1905, 1989
10632, 1988, 2209, 1650,  591
10633, 1988, 1989,  585, 1905
10634, 2020, 2179, 2632, 2362
10635,  894, 1806,  913, 1971
10636, 2385, 2581, 1137,  932
10637, 1229, 1230, 1746, 1227
10638, 1809, 1971, 1804, 2439
10639, 2439, 1971,  895, 1809
10640, 2581, 2385,  931,  932
10641, 1245, 1252, 1306, 1307
10642, 2448,  933, 1137,  932
10643, 1063, 1868, 1767, 2075
10644, 1837, 1912, 1472, 1909
10645, 2549, 2550, 1986,  666
10646, 2510, 2512, 2549, 2546
10647, 2545, 2549, 2552, 2550
10648, 2549, 2550,  672, 2552
10649, 2549, 1986,  667,  666
10650, 1682, 1637, 2549, 1986
10651,  215, 1728, 1725, 1658
10652, 1658, 2285,  215,  214
10653, 1655, 2286, 2285,  201
10654, 2286, 2193,  189, 2293
10655, 1463, 1726, 2285, 2294
10656, 2399, 1947, 2413, 1948
10657, 2412,  275, 2413,  288
10658, 2413,  546,   49,   48
10659, 2399, 2413,   49,  288
10660, 2413, 2249,   48,  275
10661, 2412, 2391, 2249,  275
10662, 2510, 1637,  668,  667
10663, 2622,  668, 2007,  669
10664, 2510, 2513, 2512, 2546
10665, 1196, 2523, 1553, 1919
10666, 2548, 2512, 1682, 2641
10667, 2558, 2622, 2479,  675
10668, 1858, 1926, 2544, 2543
10669, 2269,  406,  420,  419
10670, 2363, 2077,  255,  256
10671, 2363, 1253, 1252, 1286
10672, 2363, 1286,  242,  241
10673, 2363, 1286,  254, 1253
10674, 2363, 1286,  241,  254
10675, 1797,  256, 2664, 2077
10676, 2077, 2363, 1253, 1252
10677, 1754, 1278, 1248, 1250
10678, 2222, 2234, 2205, 1773
10679, 2234, 1619,  176, 1778
10680, 2234, 1619,  177,  176
10681, 2214, 2253, 2222, 2553
10682, 1984, 2222,  178, 2253
10683, 2234, 1619, 1620,  177
10684, 2311, 2307, 2308,  197
10685, 2307,  196, 2308,  197
10686, 2328, 2307, 2330, 2115
10687, 1942, 2307, 2330, 2326
10688, 2307, 2326,  196,  209
10689, 2112, 2115, 1942, 2307
10690, 2331, 2326, 2303, 2308
10691, 1207, 1984, 2253, 2222
10692,   19, 1212,  178, 2253
10693, 1696, 1698, 1701, 2553
10694, 1696, 2553, 2551, 1698
10695, 1984,  178, 2222,  177
10696, 2222, 2234, 1620,  177
10697, 2222, 2234,  183, 2205
10698, 2222, 2253,  184,  178
10699, 2253, 2550,   20,   19
10700, 2551, 2545, 2552, 2550
10701, 2214, 2002, 2553,  426
10702, 2593,  519, 1471, 1470
10703, 2608, 2593,  520, 1836
10704, 2593, 1836,  519,  520
10705, 2608,  520, 2593,  514
10706, 1472, 1471, 2593, 1836
10707, 2147,  111, 1020,  112
10708, 1837, 1909,  495, 1912
10709, 1837, 1911, 2601, 1838
10710, 2295,  192,   35,   36
10711, 1881, 2327,  207,  194
10712, 2299, 2192, 2089, 2088
10713, 1390,  207, 1941, 1881
10714, 1390, 1881, 2327,  207
10715, 1870, 2505, 2096,  475
10716, 2299, 2305, 1742, 2089
10717, 2579, 2585,  455, 2573
10718, 2579, 2573,  455,  449
10719, 2587,  849, 2141,  850
10720, 2141, 2187,  850,  831
10721, 1742, 1941, 1879, 1232
10722, 2576, 2580,  449,  443
10723, 2223, 2221, 2560, 2140
10724, 2140, 2187,  831,  812
10725, 1232, 1389, 1233, 1493
10726, 2299, 2142, 2298, 2300
10727, 2299, 1881,  206,  193
10728, 2137,  191, 2192,  204
10729, 2192, 2026,  204,  205
10730, 2301, 2142,  194, 1881
10731, 2088, 1743, 2300, 1880
10732, 2571,   90, 2138,  436
10733, 2575, 2198,  443,  437
10734, 2138,   90,   91,  437
10735, 2191, 2341, 2563,  441
10736, 2191,  442, 2559,  441
10737, 2138, 2560,  790, 2191
10738, 2138,   91, 2139,  437
10739, 2087, 2555, 2595, 1126
10740, 2629, 1258, 1542,  723
10741, 2105, 1538, 1542, 2149
10742, 1837,  501, 2592, 1912
10743, 1849, 2149, 2438, 2239
10744, 1123, 1126, 1313, 1124
10745, 2149,  722, 2105,  721
10746, 2148, 2438, 2149,  721
10747, 2144, 2278, 1654, 2509
10748, 2286,  202, 2285,  201
10749, 2327, 1881, 1390, 1879
10750, 2144, 2584, 2509, 2286
10751, 2286, 2285,  202, 2193
10752, 1772, 1759,  429,  416
10753, 1772,  429, 1759, 2213
10754, 1772,  428, 2205, 1773
10755, 1772, 2234, 2205, 2213
10756, 1771, 1772,  415,  416
10757, 2003, 1253,  268, 1865
10758, 2077, 2003, 1253,  268
10759, 1865, 2003,  281,  268
10760, 1602, 1875, 1876, 1877
10761, 2439, 1809, 1807, 1804
10762, 1215, 1275, 1274, 2400
10763, 1440, 1490, 1635, 1437
10764, 1651, 2284,  213, 1655
10765, 2027, 1655, 2286, 2285
10766, 1658,  213, 1655,  214
10767, 1648, 1371,  186,  185
10768, 1051, 1964, 1636, 1056
10769, 1964, 1056,  610, 1636
10770, 1964, 1965,  609, 1056
10771, 1964, 2207, 1615,  604
10772, 1416, 1615, 1964, 2207
10773, 2533,  601, 2503, 2397
10774, 2533, 2514, 2503,  600
10775, 2533, 2508,  606,  607
10776, 2533, 2508,  607, 1613
10777, 1861, 2519, 2518, 2621
10778, 2016, 2051, 2066,  543
10779, 2379, 2402, 1551, 2190
10780, 2620, 2051,  537,  543
10781, 1546, 2348, 2620, 2062
10782, 1092, 2352, 1519, 1669
10783, 2315, 2577, 2337, 2143
10784, 2357, 1633, 2315, 2334
10785, 2174, 2084, 2334, 2333
10786, 2357,  769, 2143, 2542
10787,  237,  250,  251, 2356
10788, 2337,  225, 2316,  238
10789, 2175, 2084, 2334, 2174
10790, 2357, 2577,  769,  768
10791, 2599, 2519, 2617, 2348
10792, 2617, 2348,  539,  545
10793, 2617, 2365, 1024,  115
10794, 2617, 2365,  539, 2348
10795, 2623, 2599, 2600, 1025
10796, 1187, 1552, 1188, 1553
10797, 2262, 1937, 1939,  685
10798, 2539, 2526, 2263,  659
10799, 1953, 1690,   15, 2161
10800, 1411, 2216, 1688, 1454
10801, 2216,  173, 2125,   13
10802, 2201, 2504,  621,  620
10803, 1690, 1894,   15,  627
10804, 2613, 2431, 2487,  571
10805, 1738, 2487, 2613, 2431
10806, 2472, 2613, 2487,  570
10807, 2472, 2484,  340, 2485
10808, 2263,  681,  151,  150
10809, 2263, 2264,  659,  665
10810, 2263,  681,  680,  151
10811, 2261, 2262, 2264, 2481
10812, 2261, 2264,  665, 2481
10813, 2539, 2535, 2264, 2263
10814, 2585, 1535, 2590,  868
10815, 2579, 1489,  454,  460
10816, 2314, 2579,  461,  460
10817, 2587, 1535, 2585,  868
10818, 1548,  460, 2314,  466
10819, 1526, 1529, 1548, 2314
10820, 1438, 1436, 1549, 1437
10821,  460, 1652, 2579, 1489
10822, 1922, 2397, 1412, 1810
10823, 1743, 1611, 2300, 1880
10824, 1841, 1993, 1622, 1224
10825, 1993, 2634,  941, 2527
10826, 2634,  960, 2493,  941
10827, 2527, 2634,  941, 2133
10828, 1985,   17, 1562, 2220
10829, 2535, 2605,  687,  688
10830, 2646, 2526, 2537, 2648
10831, 2652, 2153, 2491, 2537
10832, 2536,  646, 2537,  652
10833, 2535,  687, 2605, 2604
10834, 1943, 2264, 1882, 2538
10835, 2537, 2153, 2163, 2162
10836, 2652,  829, 2653,  828
10837, 1694, 1700, 2079, 1693
10838, 2199,  905,  142,   11
10839, 2654,  922, 2133, 2527
10840, 1221, 2656, 2654, 1920
10841, 2654, 1621, 1920,  884
10842, 1219, 2655, 2133, 2654
10843, 2000, 2390, 2350, 2371
10844, 2350, 2250, 2354, 2369
10845, 2353, 2370, 2368, 2369
10846, 2390, 2350, 2250, 2354
10847, 2350,  529, 2371,  535
10848, 2000, 2390, 2354, 2350
10849, 2370,  528, 2350, 2369
10850, 2370,  529, 2350,  528
10851, 1382, 2368, 2000, 2120
10852, 1382, 2350, 2000, 2368
10853, 2370, 2381,  529,  523
10854, 1381, 1388, 1382, 1392
10855, 2082,  330, 2393, 2434
10856, 2609,  316, 2421, 2393
10857, 2423, 2609,  315, 2421
10858, 1706, 1638,  303, 2421
10859, 2083,  343, 2082,  330
10860, 1418, 1456, 1419, 1164
10861, 1983, 2493, 2496, 1785
10862, 2532, 1822, 2496, 1785
10863, 2634, 2496,  960, 2635
10864, 2532, 2496,  959, 2493
10865, 1983, 2635, 2496, 2634
10866, 1832, 1800, 1694, 2079
10867, 2437,  808, 2507,  807
10868, 1355, 2270, 2507,  826
10869, 1153, 1361, 1165, 1164
10870, 2491, 2605,  694, 1397
10871, 2491,  694, 2605,  688
10872, 2417, 2410, 2425,  820
10873, 1602, 1901, 1627, 2418
10874, 2282, 2445, 2425, 2410
10875, 2425, 1260,  802, 2177
10876, 2425,  801, 2410, 2447
10877, 2107, 2324,  815,  816
10878, 1632, 1936, 2388, 1874
10879, 2127, 2424, 2106,  797
10880, 1743, 2089, 2088, 2299
10881, 2127, 2106, 2424, 2420
10882, 2424, 2324, 2107,  816
10883, 1934,  815, 1935,  814
10884, 1491, 1679, 2183,  458
10885, 2509,  457, 1679, 2584
10886, 1679, 2584,  457,  463
10887, 2609, 2082, 2343,  329
10888, 2609, 2343, 2488,  328
10889, 2488, 2423, 2609,  328
10890, 2488,  715, 2476, 2438
10891, 1706, 2609, 1685, 2463
10892, 2488, 2609, 1685, 2343
10893, 2643,  905, 2656,  886
10894, 2656, 1920,  866,  885
10895, 2094, 2345, 2095, 1958
10896, 1957, 1958, 1973, 2124
10897, 1845, 1972, 2483, 1847
10898, 2155, 2429,  382, 2076
10899, 1317, 1465, 1315, 1528
10900, 1941,  206, 1742, 1881
10901, 1192, 1637,  662, 2007
10902, 2155, 2433, 2076,  381
10903, 1512, 2207, 1416, 1420
10904, 2344, 2345,  355, 2343
10905, 1223, 1213, 1210, 1220
10906,  656,  655, 2482, 1552
10907, 1637,  662, 2007,  668
10908, 1257, 2276, 2501, 2384
10909, 2276,  823, 2501,  804
10910, 2276, 2501,  823, 2158
10911, 2180, 2217,  725, 2384
10912, 2176, 2180, 2217,  725
10913, 2473, 2499,  158,  707
10914, 2506, 1397,  701,  700
10915, 2437, 2507, 2499,  807
10916, 2437,  807, 2499,  157
10917, 2499,  701,  157,  158
10918, 1344, 1817, 2506,  706
10919, 1597, 1872, 1876, 1873
10920, 2329, 1219, 2645, 2132
10921, 1412, 1965, 2374, 2372
10922, 2329, 1184, 2224, 2645
10923, 1562, 1630, 2220, 1629
10924, 2132,  941, 2634, 2133
10925, 1205, 1204, 1931, 2048
10926, 1149, 2586, 1668, 1495
10927, 1756, 1505,  910, 1757
10928, 1754, 1757, 1505, 1756
10929, 1506, 2009, 2121,  928
10930, 1755,  930, 2392,  929
10931,  910, 2152, 1505, 1756
10932, 2152,  890,  910,  909
10933, 1706,  303, 1638, 1707
10934, 1706, 2463, 1639, 2421
10935, 1639,  302, 2126,  732
10936, 1776, 2063, 2109, 2335
10937, 1640, 1706, 1639, 1638
10938, 1639,  732, 2126,  726
10939,  733,  732,  739, 1640
10940, 2008, 2165, 2121,  947
10941,  949, 2392,  929, 2449
10942, 2164, 2121, 2165, 1854
10943, 1249, 2449, 1506, 2392
10944, 1860, 2165, 2616, 1854
10945, 2121, 2320,  928,  927
10946, 2204, 1851, 2092, 2087
10947, 2320, 2122,  927, 2121
10948, 1506,  929, 2009,  928
10949, 1863, 1906, 2204,  489
10950, 2301, 1881,  194, 2327
10951, 2142,  486,   38,   37
10952, 2301, 2142,   38,  194
10953, 2142,  486,   37,  480
10954, 2298, 2300, 2142,  480
10955, 1879, 1611, 1743, 1880
10956, 1611, 2300, 2142, 1881
10957, 1820, 2124, 2430, 2438
10958, 1820, 1973,  703,  709
10959, 1343, 1820, 1973, 1972
10960, 1845, 1972, 1973, 2483
10961, 1973, 2124, 2430, 1820
10962, 2477, 2474,  367, 2373
10963, 2517,  697, 2483,  703
10964, 2155, 2160,  382, 2429
10965, 1861, 2265, 2519, 2627
10966, 2519, 2617, 2348, 2365
10967, 1497, 1660, 1095, 1449
10968, 2599, 1025, 2617, 1024
10969, 2621, 1022, 2660, 1003
10970, 2519, 2365, 1023, 1024
10971, 2248, 1546, 2018, 2062
10972, 2262, 2604,  686,  687
10973, 2535, 2262, 2263,  681
10974, 2261, 2263, 2262,  680
10975, 2535, 2604, 2262,  687
10976, 1853, 2087, 2197, 1852
10977, 2267, 2600, 2599, 1006
10978, 2599, 1005, 2519, 2265
10979, 2248, 2265, 2599, 2519
10980, 2534, 2547,  843,  862
10981, 2236,  862, 1385,  881
10982, 2236, 1385, 2317,  881
10983, 1967, 1385, 1358, 2386
10984, 1386, 2236, 2455, 1385
10985, 2534, 2547,  862, 2455
10986, 2021, 2022, 1961, 1963
10987, 2623,  117, 2618,  551
10988, 2173, 2618, 2619, 1027
10989, 2623, 2599, 1025, 2617
10990, 2618, 2619, 1026, 2600
10991, 2618, 1026,  118,  117
10992, 2173, 2618,  118,  557
10993, 1501, 2619, 2624, 2600
10994, 1863,  489, 2204,  495
10995, 1837, 2592, 1472, 1912
10996, 2592,  508, 2309,  507
10997, 1912,  494, 2058, 1863
10998, 2595, 2367,  491, 2338
10999, 2202, 2367, 2091,  963
11000, 2093,  964, 1852,  965
11001, 1230, 1851, 1853, 1227
11002, 2202, 2091,  964,  963
11003, 2017, 2252, 2008, 2520
11004, 1464, 1733, 1975, 1287
11005, 1279, 1756, 2029, 1757
11006, 2319,  470, 2096,  469
11007, 1317,  471, 1529, 1318
11008,  215, 1733, 2294, 1726
11009, 1733, 1729,  229, 1287
11010, 1315, 1318, 1528, 2188
11011, 1469, 2026, 2089, 1975
11012, 1733, 1975,  217, 2026
11013, 1558, 1535, 2590, 2314
11014, 1526, 1558, 2314, 1535
11015, 1558,  869, 1535, 1536
11016, 1558, 1535,  868, 2590
11017, 1558,  868, 1535,  869
11018, 2587, 1534,  869,  850
11019, 1526, 1548, 1652, 2314
11020,  548, 2419, 1949, 2500
11021, 1947, 2414, 2419,  547
11022, 1946, 1949, 1947, 2419
11023, 1947, 2414,  547,  546
11024, 2412, 1947, 2413, 2414
11025, 1947, 2413, 2414,  546
11026, 1946, 2242, 2412, 1948
11027, 2415, 2446, 2410, 2657
11028, 2446, 2657, 2658,  749
11029, 2380, 2061, 1864, 1550
11030, 2446, 2447, 2410, 2657
11031, 2415, 2658, 2039, 2446
11032, 2446, 2658,  748,  749
11033, 1463, 1733, 1726, 2294
11034, 2026, 1463, 1733, 1975
11035, 1680, 2137, 2026, 2294
11036, 1680, 2319, 2584, 1679
11037, 2486, 1966, 1050, 1049
11038, 1952, 1893,  979, 2131
11039, 1413, 1510,  997, 1016
11040, 1966, 2467, 1017, 1018
11041, 1383, 1471, 1913, 1387
11042, 1910, 2660, 1835, 2607
11043, 1455, 1052, 2504, 1454
11044, 1883, 2605, 1982, 2604
11045, 2462, 1359, 1355,  845
11046, 2206, 2607, 1002, 2660
11047, 1200, 2539, 2646, 2535
11048, 2551,  413, 1698, 2553
11049, 1207, 2253, 1212, 2550
11050, 2528,  398, 2408,  399
11051, 2528, 1698,  400, 1699
11052, 1798, 1295, 1365, 2396
11053, 1428, 1624, 1347, 1348
11054, 2083, 2109, 2025,  344
11055, 1430, 2083, 2109, 2025
11056, 2063, 1777,  333, 1712
11057, 2655,  904, 2656,  905
11058, 2199, 2655,  905,  924
11059, 2655, 2654,  923, 2133
11060, 2655, 2654,  904,  923
11061, 2260, 2224,  139,  140
11062, 1421, 1464, 1285, 1462
11063, 1537, 1584, 1536, 1534
11064, 1584, 1536,  889, 1583
11065, 1459, 1584, 2636, 2498
11066, 1584, 2636, 2498,  871
11067, 1584, 1583,  889,  890
11068,  633, 1452, 1894, 2215
11069, 1452, 1894,  627,  633
11070, 1453, 2215, 1452, 2486
11071, 2215,  638,  135,  136
11072, 1452, 1894,  628,  627
11073, 1050, 1433, 1037, 1038
11074, 1053, 1894, 1054, 1690
11075, 2206, 2202, 1001, 2597
11076, 2010, 2012, 1185, 2013
11077, 1453, 1629, 2215, 1631
11078, 1631, 1630, 2013, 1893
11079, 2255,  942, 2011,  961
11080, 1631,  980, 2013,  981
11081, 2255, 2013,  980,  961
11082, 2012, 1185,  637,  631
11083, 2638,  637, 1185, 2637
11084, 2637, 1185,  638,  637
11085, 2206, 1001, 2202, 1002
11086, 2090, 2505, 2297, 2096
11087, 1309, 1314, 1124, 1313
11088, 1680, 2137, 2294, 2193
11089, 2137,  204, 2192, 2026
11090, 2283, 2193, 2137, 2297
11091, 1500, 2599, 2248, 2267
11092, 2065, 2348,  545,  544
11093, 2623,  116, 1025,  117
11094, 2620, 2051,  543, 2066
11095, 2248, 2265, 2267, 2599
11096, 2248, 2599, 2348, 2519
11097, 1895, 1897, 2594, 1896
11098, 1859, 2444, 1895, 2240
11099, 2332, 1895, 1830, 2292
11100, 2441, 2443,  337, 2440
11101, 2645, 2655,  923, 2133
11102, 1219, 2645, 2132, 2133
11103, 2638, 2011, 2471,  943
11104, 2331,  498, 2303, 1610
11105, 2329, 2645, 2011, 2132
11106, 2645,  942, 2132, 2133
11107, 2471,  139, 2224,  636
11108,  447, 2559, 2341, 2340
11109, 1438, 1436, 1461, 1549
11110, 2575, 2559, 2191,  442
11111, 2569, 2564, 2566, 1331
11112, 2569, 1331, 2566, 2563
11113, 2569, 1331,  788, 2564
11114, 1747, 1632, 2313, 1874
11115, 2568,  446, 1635, 2182
11116, 2569, 2574, 2563, 2571
11117, 2574, 1331,  783,  789
11118, 2179, 2229, 1030,  121
11119, 2201,   13, 2125,    1
11120, 1731, 2125, 2216,  173
11121, 2125,  619, 1688,  620
11122, 2125,  620,    1,   28
11123, 1411, 2216, 1690, 2161
11124, 1454, 1455,  628,  629
11125, 2125,  620,   28,  619
11126, 1981, 1750, 1013, 1012
11127, 1932, 1995, 1014, 1013
11128, 1932, 1981, 1013, 1032
11129, 2020, 2069, 1981, 2632
11130, 1482, 1981, 1989, 2632
11131, 2594, 2503, 1674, 1671
11132, 1987, 2069,  587, 2632
11133, 1932, 1689, 1014, 1995
11134, 1751, 1981, 1987, 1989
11135, 2331,  504, 2113, 2308
11136, 1719, 1721, 1368, 2258
11137,  505, 2603, 2112, 2113
11138, 1365, 2268, 2396, 1786
11139, 2311, 2113, 2308, 2307
11140, 1180, 1225, 1280, 1221
11141, 1625, 1681, 2033, 1869
11142, 1857, 2006, 1888, 1886
11143, 1196, 2525, 1194, 1552
11144, 2652, 2296, 2492,  828
11145, 2647, 2536, 2525,  645
11146, 2523, 2525,  867,  848
11147, 2647, 2652, 2611, 2162
11148, 1961, 1963, 2059, 1962
11149, 1959, 1960, 1102, 1103
11150, 2059, 1963,  878, 1962
11151, 1447, 2335, 2465, 2063
11152, 1963, 2236, 2233,  880
11153, 1969, 1809, 2022, 1970
11154, 1714, 1918, 1280, 2562
11155, 1963,  878, 1962,  879
11156,  880, 1962,  879, 1963
11157, 2168,  860, 1962, 1916
11158, 1959, 2236, 1963, 1962
11159, 1352, 1350, 1356, 1351
11160, 2024,  345, 2025, 1777
11161, 1738, 2444, 1895, 1827
11162, 1897, 1896,  577,  583
11163, 2441, 1827, 2440, 2495
11164, 1185, 2638, 2013, 2012
11165,  624,   18, 1214, 2220
11166, 1562, 2220,   16, 1629
11167, 2011,  962, 2013,  961
11168, 2220,  625, 2012,  624
11169, 2041,  816, 2424,  797
11170, 2424,  816, 2107,  797
11171, 1936, 2107, 2424, 2324
11172, 1601, 2324, 2424, 2044
11173, 2424, 2324,  816, 2044
11174, 1921, 1919, 2462, 2296
11175, 1196, 1195, 1552, 1194
11176,  650,  656, 1194, 1552
11177, 2653, 2536, 1196, 2525
11178, 1194, 2525,  644, 1552
11179, 1201, 2492, 2464, 2507
11180, 1758, 2393, 1707, 2394
11181, 2304, 1554,  857,  858
11182, 2059, 1915,  858, 1231
11183, 2052, 1915, 2059, 1231
11184, 1119, 1971, 1804, 1809
11185, 2059, 1915, 1916,  859
11186, 1382, 2381, 1550, 2000
11187, 1466, 1132, 1467, 1233
11188, 2009, 2121,  928,  947
11189, 2057,  950, 2053,  949
11190, 1606, 2008, 2449, 2520
11191, 2152, 2320, 1504, 2321
11192, 1596, 1869, 1393, 2032
11193, 2661,  170,  773,  169
11194, 2661, 2313, 2312, 1748
11195, 1936, 1934, 2107, 1935
11196, 1320, 1574, 1745, 1848
11197, 2661, 2312, 2313,  779
11198, 1934,  813, 2556, 1748
11199, 1934, 2107, 1935,  815
11200, 2186, 2663,  794,  793
11201, 2223, 2186, 2312, 1748
11202, 2186, 1748,  794, 2663
11203, 2221, 2572, 2191, 2559
11204, 1741, 2312,  784, 1329
11205,  778, 1747, 1329, 2312
11206, 1848, 2135,  775,  781
11207, 2155, 1955, 2433,  394
11208, 2001, 1954, 2433, 1955
11209, 2076, 2433,  368,  381
11210, 1954, 2433, 1955,  393
11211, 2477,  368, 2433,  367
11212, 1890, 2429, 2076, 1958
11213, 1999, 1772, 1778, 2234
11214, 1408, 1772, 1759, 1778
11215, 2079, 1832, 1697,  402
11216, 1832, 1697,  402, 1833
11217, 2219,   58, 2218,  606
11218, 2212, 2218, 1678, 2533
11219, 2219,  606, 2218, 2508
11220, 2218,   57,  600,   58
11221, 2218, 1678, 2533, 2514
11222, 2230, 2231, 2173,  563
11223, 2173, 2619, 2426, 1027
11224, 2173, 2618, 1027,  118
11225, 2173,  118, 1027,  119
11226, 2173, 1028,  119, 1027
11227, 2387, 2624,  557,  556
11228, 2184, 2387, 2459, 2231
11229, 2387, 2173, 2618, 2619
11230, 2491, 2646, 2153,  689
11231, 2491,  688, 2646,  689
11232, 2490, 1397, 2491,  695
11233, 1553, 1196, 1552, 2523
11234, 1465, 1315, 1528, 1580
11235, 2153, 2646, 2648,  683
11236, 2471,  138,  943,  924
11237, 2199,  139, 2471,   11
11238, 2471,  924,   11,  138
11239, 2471, 2012,  636, 2224
11240, 2260, 2224, 2471,  139
11241, 2011, 2471,  943, 2645
11242, 2011, 2224, 2471, 2645
11243, 1506, 1755,  929, 1505
11244, 1504, 1506, 2320, 1505
11245, 1797,  256, 1668, 2102
11246, 1269, 1145, 2068, 1586
11247, 2050, 2431, 2613, 2049
11248, 2050, 2613, 2454, 2049
11249, 2458, 2442,  326, 2452
11250, 1145, 2050, 2442, 2458
11251, 1160, 2458, 2442,  325
11252, 2508,  613,  607, 1405
11253, 1414, 1072, 1415, 1513
11254, 2583,  473,   99,  479
11255, 2598, 2583,  906,  925
11256, 2583,   99,   98,  925
11257, 2591, 1527, 2188, 2189
11258, 2188, 1318,  472,  478
11259, 2583,  906,  925,   98
11260, 1050, 1435, 2612,  622
11261, 1050, 1037, 1433, 1636
11262, 1048, 1050, 1455, 2504
11263, 1486, 1452, 1455,  634
11264, 1455, 1452,  628,  634
11265, 1486, 1050, 1455, 1452
11266, 1454, 1690,   14,  628
11267, 1053, 1452, 1453, 1894
11268, 1053,  628, 1452, 1894
11269, 2545, 2546, 2549, 2512
11270, 2545, 2512,  424, 2546
11271, 1207, 2550, 2551, 2253
11272,  411, 2548, 2512, 2545
11273, 2002, 2551, 2552, 2550
11274, 2002,   20, 2253, 2550
11275, 2548, 1282, 2641, 1682
11276, 2548, 1683, 1986, 2549
11277, 1465, 2321, 2351, 1580
11278, 2321, 2351, 1580,  908
11279, 2321, 1580,  889,  908
11280, 2321,  889, 1580, 1583
11281, 1526, 1534, 1459, 1537
11282, 1537, 1580, 1536, 1583
11283, 1465, 2321, 1537, 1583
11284, 2028, 2321, 2411, 2320
11285, 1285, 1733, 1287, 1729
11286, 1125, 2351, 1316, 2197
11287, 1494, 1423, 1469, 1975
11288, 1589,  739, 1599,  740
11289, 1589, 1599,  746,  740
11290, 1858, 1682, 2007, 2622
11291, 2544, 1926, 2227,  396
11292, 1683, 2550, 1207, 1212
11293, 1282, 2544, 2650, 2641
11294, 1858, 2511, 1682, 2622
11295, 2597,  497, 2367,  102
11296, 2595, 2367,  497,  491
11297, 2092, 2091, 2367, 2338
11298, 2367,  101,  982,  102
11299,  497, 2595,  490, 1838
11300, 2179, 2362,  575,  581
11301, 2367, 2338,  963,  101
11302, 2551, 2545, 2528,  412
11303, 1696, 2551, 2528, 1698
11304, 2528, 1683, 2548, 2551
11305, 1840, 1814, 1816, 2014
11306, 1815, 1782, 1812, 1816
11307, 2117, 2014,  371, 1782
11308, 1782, 2014,  371, 1816
11309, 1812,  385, 1816,  372
11310, 1840, 2014, 2310, 2226
11311, 1344, 2274, 2473, 2270
11312, 1350, 2276, 2274, 2158
11313, 2274, 2276,  824, 2158
11314, 1351, 1358, 2534, 1359
11315, 1344, 1817, 1818, 1343
11316, 1344, 2506,  707,  706
11317, 1433, 1540, 1435,  623
11318, 1433, 1434, 1540, 1038
11319, 1540,  641,   10,  133
11320, 1540,   10,  130,  129
11321, 1433, 1038, 1540,  129
11322, 1540,  133, 1434,  641
11323, 1532, 1478, 1394, 1625
11324, 2060, 1398, 1446, 1774
11325, 1554,  858, 1915, 1231
11326, 1465, 1315, 1580, 2351
11327, 1886, 1926, 2269, 1927
11328, 2269, 1927,  407, 2156
11329, 1179, 1191, 2238, 1188
11330, 2269,  408, 1927, 1926
11331, 2269,  407, 1927,  408
11332, 2480, 2479,  676,  675
11333, 2480, 2479, 2558, 2543
11334, 1407, 1405, 1411, 1404
11335, 2201, 2125, 1688,  620
11336, 2216, 1690, 2161,   14
11337, 1053, 1454,  628, 1690
11338, 1411, 1692, 2216, 2161
11339, 2211, 1731, 1692, 2216
11340, 1968, 1136, 1971, 1970
11341, 1427, 1430, 2025, 1432
11342, 1309, 1315, 1125, 1124
11343, 2448, 1138, 1137,  933
11344, 1115, 1122, 1121, 1114
11345, 1138, 1136, 2070, 1970
11346, 1971, 1136, 2448,  914
11347, 1805, 1806, 1971, 2448
11348, 1175, 1402, 1565, 1168
11349, 1285, 1422, 1287, 1464
11350, 2083, 2025, 2117,  344
11351, 1461, 1296, 1460, 1544
11352, 2344, 1958, 2094, 2124
11353, 2346, 1430, 2117, 2083
11354, 2203, 1838, 1837, 2204
11355, 1346, 2239, 1343, 1856
11356, 2082, 2081,  342,  343
11357, 2081,  343, 2346, 2345
11358, 2083,  330, 2082, 2434
11359, 1345, 1624, 1346, 1856
11360, 1919, 2523,  847, 2653
11361, 1552, 2523, 2642, 1553
11362, 2523,  847, 2653,  848
11363, 1680, 2319, 2297, 2584
11364, 2523,  848, 2653, 2525
11365,  650, 1552,  644,  649
11366, 2569, 2571, 2563,  435
11367, 2571,  789,   90,   89
11368, 2571, 2138,   90,  790
11369, 2575, 2576, 2221, 2559
11370, 2569,   89, 2571,  435
11371, 2572, 1331, 2574, 2563
11372, 2575,  442, 2191,  436
11373, 2362,  581, 2632,  580
11374, 2019, 2362, 2632,  580
11375, 2179, 2172, 1030, 2229
11376, 2362, 2625, 2361, 2229
11377, 2625, 2361, 1766, 2362
11378, 1766,  574,  573, 2625
11379, 2095, 2076, 2477,  368
11380, 2477, 2076, 2433,  368
11381, 2429, 2076,  369,  382
11382, 2001, 2517, 2483, 1958
11383, 1474, 1472, 1911, 1836
11384, 2093, 2206, 1002, 2615
11385, 2202, 2597, 2367,  982
11386, 2597,  497,  103,  503
11387, 1911, 2592, 2608, 2593
11388, 2597, 1001,  103,  102
11389, 2597, 1001,  102,  982
11390, 2145, 1021, 2147, 2607
11391, 1835, 2146, 2607, 2660
11392, 2299,  193, 2142, 1881
11393, 2298, 2142,   37,  480
11394, 2088, 2300,  480,  481
11395, 2300,  481, 1880,  487
11396, 1411, 1052, 1690, 1454
11397, 1612,  614, 1056, 2504
11398, 1411, 1405, 1612, 1692
11399, 1631, 2637, 2013, 1185
11400, 1054, 1690, 1953, 1409
11401, 1612, 1056,  614,  609
11402, 1612,  609, 1965, 1056
11403, 1561, 1810, 1792, 1673
11404, 1942, 1610, 2326, 2327
11405, 2303,  195, 2326, 2327
11406, 2303,   39, 2301,  492
11407, 2058,  500, 2603,  499
11408, 2303, 1610, 2327, 2326
11409, 1879, 1610, 1609, 1942
11410, 1232, 1381, 1237, 1389
11411, 1611, 2300, 1880,  487
11412, 1382, 1392, 1388, 2370
11413, 2331, 2307, 1942, 2326
11414, 2567,  788, 1331, 2564
11415, 1744, 2567,  782, 1331
11416, 2567,  782, 1331,  788
11417, 1680, 2027, 1679, 2584
11418, 2357, 1848, 1633, 2135
11419, 1574, 1848, 2542, 1745
11420, 2569,  434, 2566, 2564
11421, 2566,  434, 2563,  440
11422, 1440, 2183, 1656, 2182
11423, 1218, 2323, 1217, 2561
11424, 1217, 2522, 2436,  854
11425, 2033, 1596, 2359, 2034
11426, 1254, 2077, 1797, 2664
11427, 2399, 1948,  288,  301
11428, 2399, 2413,  552,   49
11429, 2399, 1947,  552, 2413
11430, 2470, 2469, 2399, 1948
11431, 1756,  890,  910, 2152
11432, 1976, 2411, 1316, 2321
11433, 1505, 2152, 2028, 2320
11434, 1140, 1147, 1242, 1723
11435, 2017, 1100, 1503, 1606
11436, 2152,  889, 1583,  890
11437, 1526, 1528, 1527, 1558
11438, 2191, 2574, 2571, 2563
11439, 2223, 2140, 2560, 2186
11440, 2574,  783, 1329,  784
11441, 2273, 2181, 2278,  444
11442, 2029, 1871, 2561, 2636
11443, 1645, 1633, 1651, 2284
11444, 1654, 1649,  200, 1655
11445, 2181, 2182,  451,  445
11446, 1459, 1566, 1871, 2636
11447, 1654, 1655,  201, 2286
11448, 1654, 1655,  200,  201
11449, 1882, 2262, 2535, 2604
11450, 2535,  687, 2262,  681
11451, 2535, 2262, 2264, 2263
11452, 1197,  652, 2536, 2537
11453, 2539, 2535, 2263, 2526
11454, 2535, 2646,  682, 2526
11455, 1721, 2258, 1719,  361
11456, 2099, 2098,  348, 2258
11457, 2080, 1368, 2258, 1719
11458, 1718, 1593, 1577, 1784
11459, 1526, 1567, 1459, 1534
11460, 2258,  363, 2495, 2256
11461, 2258, 2495,  363,  350
11462, 2505, 2096,  475,  469
11463, 2505, 2096,  469, 2297
11464, 2090, 2137, 2505, 2192
11465, 2088, 2298, 2505,  474
11466, 1870, 2505, 2090, 2096
11467, 2283,   35, 2295,  191
11468, 1611,  493, 1610,  492
11469, 1743, 2300, 1611, 1881
11470, 1611, 2300,  486, 2142
11471, 2303, 1610, 2301, 2327
11472, 1743, 1129, 1742, 1879
11473,  488, 1880, 1609, 1128
11474, 2145, 2660, 1022, 1021
11475, 2660, 1002, 2615, 1003
11476, 1910, 2206, 2093, 2615
11477, 2621, 1713, 1022, 1023
11478, 1861, 2621, 1835, 2627
11479, 2206, 2660, 1002, 2615
11480, 2219, 1793,  405,  418
11481, 2219, 2218,   58,  405
11482, 2219, 1793,  612, 2508
11483, 2212, 2219, 2508, 1793
11484, 1266, 1260, 2425, 2651
11485, 2003, 1769, 2005, 1062
11486, 1338, 1340, 1263, 1559
11487, 2579, 1652, 2314, 2585
11488, 2301, 1611,  492,  486
11489, 2301, 1611, 1610,  492
11490, 2301, 1611, 2327, 1610
11491, 2301, 2142,  486,   38
11492, 2301, 2327, 1611, 1881
11493, 1529,  466, 1527,  472
11494, 1529, 1527,  466, 2314
11495, 2591, 2189, 2188, 2583
11496, 1558, 1527, 2314, 2590
11497, 1529, 1527, 1318,  472
11498, 2591,   97,  906,   98
11499, 2591,  906,   97,  887
11500, 1558, 2591, 2590,  887
11501, 2027, 2509, 2183, 1679
11502, 2509, 1679,  457, 2183
11503, 2144, 2286, 2293, 2584
11504, 2509, 2183,  457,  451
11505, 2144,  456,   32,  450
11506, 2144, 2286,  189, 2293
11507, 2181, 1654, 2278, 2509
11508, 1654,  187, 1649, 2278
11509, 2027, 1654, 2286, 1655
11510, 1323, 1324, 1635, 1646
11511, 1656, 2183, 2181, 2182
11512, 1656, 2181, 1654, 1649
11513, 2181,  450, 2509, 2278
11514, 1656, 2181, 2468, 2182
11515, 1656, 2509, 2181, 2183
11516, 2568,  445, 2468,  439
11517, 1721, 2258,  348, 2098
11518, 1544, 1529, 1526, 1528
11519, 1523, 1983, 2635, 2496
11520, 1721, 1722,  347,  360
11521, 1718, 2225, 1721,  374
11522, 1929, 1470, 2602, 2603
11523, 2602, 1912,  500, 2603
11524, 1929,  513, 2593, 1470
11525, 2602, 1912,  501,  500
11526, 1472, 2602, 2592, 2593
11527, 1929,  513,  512,  107
11528, 2472,  327,   53,  340
11529, 2472, 2487, 2485,  576
11530, 1738, 1896, 2484, 2487
11531, 2484, 2485, 1675,  353
11532, 2460, 2442,  326,  339
11533, 2472,   52,  570,   53
11534, 2460,  339, 2444, 2442
11535, 2647, 2525, 2536, 2653
11536, 1200, 2646, 2539, 2537
11537, 2153, 2652, 2162, 2537
11538, 2647,  145,  829,  146
11539, 2647,  145,  848,  829
11540, 2647, 2653,  848, 2525
11541, 1194,  645, 2525, 2536
11542,  644, 1194,  645, 2525
11543, 1200, 2537, 2491, 2646
11544, 2643, 2655, 2656,  905
11545, 2260,  648, 2644, 2238
11546, 1184, 2259, 2260, 2238
11547, 2643, 2642, 2524, 2656
11548, 2643,  886, 2656, 2524
11549, 2471,  924, 2645, 2260
11550, 1184, 2260, 2645, 2655
11551, 2643,  142,  905,  886
11552, 1188,  654, 2238,  648
11553, 1257, 2384, 2180, 2629
11554, 2180, 2384, 2501, 2217
11555, 2180, 2651,  730,  731
11556, 2281, 2040, 2405, 2039
11557, 2176, 2501,  803, 2217
11558,  723, 2629, 2149, 1542
11559, 1706, 2421,  303, 2393
11560, 1444, 1483, 2465, 1447
11561, 1394, 1681, 1063, 1396
11562, 1559, 1556, 1478, 2405
11563, 2151,  305, 1707, 2150
11564, 2465,  305, 2151,  306
11565, 2060, 2063,  320, 1709
11566, 1447, 2465, 1445, 2063
11567, 1945, 1948, 2470, 1951
11568, 2453, 2432, 2454, 2452
11569, 2470, 1951, 1948,  300
11570, 1791, 2454, 2470, 2469
11571, 2470,  313, 2458, 1951
11572, 2453, 2470,  314, 2452
11573, 1835, 2621, 2660, 2615
11574, 1861, 2621, 2627, 2519
11575, 2621, 1003, 2660, 2615
11576, 2621, 2660, 1022, 1713
11577, 2621, 2519, 1004, 2627
11578, 2655, 2643, 2199,  905
11579, 2643, 2642, 2656, 2644
11580, 2523, 1196, 1552, 2525
11581, 2656, 2523, 1919, 1553
11582, 2642,  649, 2644,  643
11583, 2525, 2523, 2642, 1552
11584, 2642, 2523, 2525, 2524
11585, 1552,  644,  649, 2642
11586, 1327, 1635, 2340, 1437
11587, 1327, 2341, 2572, 2559
11588, 1327, 1635, 2341, 2340
11589, 2223, 1741, 2560, 2572
11590, 1324, 1647, 2567, 2566
11591, 2566, 2341,  440, 2563
11592, 2139,  791, 2560, 2336
11593, 1934,  794, 2661,  795
11594, 2186, 1748, 2663, 2312
11595, 2572, 2191, 2574, 2560
11596, 1319, 1330, 1741, 1329
11597, 1209, 2222, 2234, 1620
11598, 1207, 2222, 2253, 2553
11599, 1661, 2054, 1502, 2053
11600, 2599, 1546, 2348, 2065
11601, 2402,  543, 2016,  548
11602, 2018, 1546, 1545, 1551
11603, 2243, 2166, 2046, 1520
11604, 2402, 2051,  543,  542
11605, 2302,  832, 2556,  833
11606, 1940, 1566, 1378, 2302
11607, 2302, 2556,  832, 2187
11608, 2223, 2186, 2556, 2187
11609, 2186, 1748, 2556,  813
11610, 1591, 2556, 1934,  814
11611, 1591, 1934, 2556, 1748
11612, 1632, 1934, 1748, 2313
11613, 1590, 1603, 2323, 1935
11614, 1495,  218, 2305, 2318
11615, 1494, 1495, 1974, 2305
11616, 1667, 1494, 1495, 1796
11617, 1795,  230, 1974,  231
11618, 1382, 1392, 2368, 2120
11619, 2368, 2370, 2350, 2369
11620, 2368, 2120, 1392,  235
11621, 2554, 2368, 2000, 2354
11622, 2368, 2354,  249, 2369
11623, 1184, 2645, 2260, 2224
11624, 2260, 2471, 2224, 2645
11625, 2260,  642, 2644,  648
11626,  924, 2199, 2260, 2471
11627, 1183, 2644, 2260, 2655
11628, 2041, 2128, 2418, 2658
11629, 1595, 1605, 1602, 2032
11630, 2418, 2658,  754,  748
11631, 1596, 1571, 2073, 1573
11632, 1627, 2279, 2280, 2418
11633, 2587, 2579, 2573, 2585
11634, 1510, 1689,  996, 1015
11635, 1509, 1510, 1689,  996
11636, 1508, 1509, 1510, 1689
11637, 1834, 2207, 2289, 2209
11638, 1381, 2330, 2328, 1391
11639, 2119, 1392, 2328,  223
11640,  210, 2115, 2306, 2307
11641, 2328,  209, 2307,  210
11642, 2328, 2330,  222, 1391
11643, 2119,  210,   44,  223
11644, 1987, 1988,  592, 1783
11645, 1762, 1981, 1032, 2069
11646, 1751, 1989, 1987, 1988
11647, 1762, 2069, 1987, 1981
11648, 1987, 1988,  586,  592
11649, 1987, 2632, 1981, 2069
11650, 1987, 1989, 2632,  586
11651, 2191,  435, 2571,  436
11652, 1319, 1592, 1741, 1330
11653, 2572, 2574, 2191, 2563
11654, 2191, 2574,  790, 2571
11655, 2587, 2579, 2141, 2573
11656, 2596, 1001, 2607, 1020
11657, 2203, 1911, 1837, 1838
11658, 2147, 2608,  521, 2146
11659, 2592,  501, 2602, 1912
11660, 1851, 2093, 2091, 1852
11661, 1482, 1981, 1751, 1989
11662, 2038, 2036,  973,  972
11663, 2019,  579, 1989, 1736
11664, 2019, 1736,  573,  579
11665, 1766,  573, 1736, 2626
11666, 1766, 2362,  574, 2625
11667, 1125, 1315, 2598, 2582
11668, 1341, 1845, 1973, 1957
11669, 2437, 2507, 2492, 1397
11670, 2074, 2507, 2506, 1397
11671, 2270,  806, 2499,  807
11672, 2464, 2507, 2492,  827
11673, 1817, 2633,  700,  699
11674, 2507, 2492,  827,  808
11675, 1889, 1937, 1882, 1846
11676,  263, 2364,  750, 2395
11677, 2272, 1899, 1900, 1589
11678, 2395, 2272,  750,  744
11679, 1901, 1589,  751, 1900
11680, 1720, 1640, 1589,  739
11681, 2418, 2279, 2280,  748
11682, 1559, 2281, 1556, 2405
11683, 1604, 2039, 1627, 2405
11684, 2445, 2446,  743, 2447
11685, 2445,  736, 1541, 2651
11686, 2280, 1541, 2445,  736
11687, 2445, 2447,  737, 2177
11688, 2140, 2198,  792,  811
11689, 2223, 2302, 1980, 2187
11690, 2186, 2556, 2187,  813
11691, 2140,  811, 2580, 2198
11692, 2420, 1873,  760,  766
11693, 2388,  766, 2420,  767
11694, 2106,  797, 2424, 2107
11695, 2424, 2324, 1601, 1936
11696, 1936, 2420, 2388, 1873
11697, 1601, 1875, 2420, 1873
11698, 2106, 2107, 2662,  796
11699, 1465, 1580, 1537, 2321
11700, 2395, 2364,  750, 2272
11701, 1900, 2364, 2272,  750
11702, 2463,  727, 1639,  726
11703, 2463, 2105,  727,  721
11704, 2423, 2463, 2421, 2126
11705,  328, 2489, 2488, 2423
11706, 2423, 2488, 2463,  720
11707, 1871, 2636, 2029, 1459
11708, 1685, 2463, 2148, 2105
11709, 2423,  726,   75,   74
11710, 2423,   75,  315,  328
11711, 1473, 2529, 2108, 2380
11712, 1835, 2627, 2621, 2615
11713, 1471,  525, 1836, 2529
11714,  519, 1471,  525, 1836
11715, 2529, 1471,  525,  524
11716, 2530, 1864, 2518, 2621
11717, 1666, 1663, 1660, 1781
11718, 2529, 2108,  526, 1836
11719, 2529,  526, 2108,  525
11720, 1528, 1527, 2188, 1318
11721, 1315, 1124, 2188, 2582
11722, 2598, 2583, 2188, 2189
11723, 2188,  472, 1527,  473
11724, 2437, 2507, 2506, 2499
11725, 2074, 1817, 2633, 2506
11726, 2437,  701, 2506, 1397
11727, 2506,  701, 2499,  707
11728, 1344, 1817, 2074, 2506
11729, 2534,  843, 1356,  844
11730, 1344, 2506, 2074, 2270
11731, 2274, 2473, 2270,  806
11732, 2349, 2502,  549,  555
11733, 2624, 2618, 2600, 2619
11734, 2349, 2387, 2624, 2619
11735, 2624,  551, 2618,  557
11736, 2387, 2173,  557, 2618
11737, 2387,  557, 2173,  563
11738,  357, 2117, 2346, 2014
11739, 2310, 2650,  397,  398
11740, 2310,  397, 2650, 2227
11741,  357, 2014,  371, 2117
11742, 2089, 1742, 1743, 1468
11743, 1890, 2433, 2155, 1955
11744, 2406, 2650,  398, 2408
11745, 1807, 1808, 1395, 1479
11746, 1884, 1858, 1926, 2227
11747, 1358, 1385,  862, 2386
11748, 1967, 1385, 2455, 1358
11749, 1463, 1680, 2193, 2286
11750, 1356, 1350, 2270, 2274
11751, 1102, 1386, 1385, 2236
11752, 2344, 2474, 2477, 2430
11753, 2477, 2076, 1958, 2433
11754, 2517, 1958, 2477, 1973
11755, 2124, 1958, 1973, 2344
11756, 2344, 2094, 1958, 2345
11757, 2095, 2345, 2477, 1958
11758, 2474, 2430,  708,  702
11759, 2095, 2477, 2076, 1958
11760, 2373, 2477, 2433,  367
11761, 1388, 2370,  523, 1387
11762, 1388, 1387,  517, 2115
11763, 1382, 1388, 1387, 2370
11764, 2577, 2355, 2337,  237
11765, 2034, 2577, 2143, 2337
11766, 1377, 1218, 1871, 1590
11767, 2357, 2315, 2577, 2084
11768, 2034, 2577, 2337, 2356
11769, 2577,  237, 2337, 2356
11770, 2084, 2357, 2333, 2355
11771,  768, 2577, 2355, 2357
11772, 1861, 2248, 2518, 2519
11773, 2518,  532, 2062, 2108
11774, 2518, 1713, 2621, 2365
11775, 2248, 2518, 2348, 2062
11776, 2518,  539, 2365, 2348
11777, 2201,    1, 2125,  620
11778, 2201,    1,  132,   13
11779, 2201, 1454, 1688, 2125
11780, 2201, 1454, 2504, 1688
11781, 2201,  132, 2612,  629
11782, 1835, 2530, 1836, 2146
11783, 1837, 1472, 2592, 1911
11784, 2092, 2202, 1838, 2367
11785, 1837, 2204, 1838,  496
11786, 1851, 2093, 1852, 1854
11787, 1309, 1853, 1125, 1316
11788, 1236, 1472, 1912, 1909
11789, 2122, 1976, 2411, 1853
11790, 2092, 1838, 2595, 2367
11791, 2539,  653, 2526,  659
11792, 2539, 2537,  653,  652
11793, 2539,  659, 2263, 2264
11794, 2539, 2535, 2526, 2646
11795, 2216, 1454,   13, 2125
11796, 2216, 1688, 1454, 2125
11797, 2211, 2216, 1692, 2161
11798, 1411, 2216, 1454, 1690
11799, 2146, 1836,  520,  526
11800, 2146, 1911, 1835, 2607
11801, 2147, 2608, 2146, 2607
11802, 2145, 2607, 2660, 1021
11803, 2530, 1473, 1835, 1836
11804, 2145, 2530, 2660, 2146
11805, 1911, 2601, 2608, 2592
11806, 2206, 2596, 1001, 2607
11807, 2530, 2518, 1713, 2621
11808, 2145, 2660, 2530, 1713
11809, 1835, 2530, 2146, 2660
11810, 2530, 2518,  533, 1713
11811, 2402, 1551, 2016, 2051
11812, 1094, 1140, 1147, 1242
11813, 1299, 1465, 1537, 1583
11814, 1519,  272, 1326,  259
11815, 2360, 2389,  273,  260
11816, 2360, 1092, 1519, 2245
11817, 1837,  495, 1909, 2204
11818, 2360, 2245, 1519,  272
11819, 1755, 1803,  892, 1283
11820, 1245, 1246, 1278, 1279
11821, 2055, 2581, 1137, 2385
11822, 2581,  931, 2385, 2392
11823, 1274, 1803, 1283,  873
11824, 1464, 1469, 1975, 1463
11825, 1274,  874, 1803,  873
11826, 2045,  295, 2157, 2048
11827, 2046, 2157, 2166, 2290
11828, 2046, 2045, 2166, 2157
11829, 1975, 1463, 1733, 1464
11830, 1518, 2045,  269,  270
11831, 1517, 1518, 2166, 2045
11832, 1326,  257,  271, 1518
11833, 1518, 1516, 2166,  271
11834, 1804, 1971, 1805, 1806
11835, 1506,  928, 1505,  929
11836, 2009, 1506, 2449,  929
11837, 1149, 1668, 1667, 1495
11838, 1724, 2664, 1797, 2102
11839, 2231, 2387, 2173,  563
11840, 2387, 2624, 2619, 2618
11841, 2230, 2231, 2426, 2173
11842, 2231, 2184,  562,  568
11843, 2184, 2459, 1764, 2231
11844, 2230,  119, 1028,  120
11845, 2230, 1028, 2173, 2426
11846, 2230, 1029,  120, 1028
11847, 2230, 1029, 2361, 2229
11848, 2128,  754, 2658,  755
11849, 2128,  761, 2420,  760
11850, 2128, 2418, 2658,  754
11851, 2127,  798,  797,  167
11852, 2040, 2415, 2041, 2039
11853, 1875, 2128, 2420,  760
11854, 2041, 2418, 1601, 1604
11855, 1738, 2460, 2484, 2444
11856, 2460,  326, 2442, 2452
11857, 1738, 2050, 2460, 2442
11858, 2460, 2484, 2444,  339
11859, 2460, 2613, 2432, 2452
11860, 2637, 1185, 2215,  638
11861, 1631,  980, 1952, 1893
11862, 2215, 1185,  632,  638
11863, 1000, 2215, 2515,  135
11864,  136, 2215, 2637,  981
11865, 2585,  455, 2573,   95
11866, 2579, 2587, 1979, 1652
11867, 2579, 2576, 2573,  449
11868, 2573, 2141,  849,  830
11869, 2573,  849,   95,   94
11870, 2475,  354,   73,  341
11871, 2475,   72,  714,   73
11872, 2488, 2475,  341, 2343
11873, 2474,  708, 2475,   72
11874, 2344, 2475, 2343,  354
11875, 1967, 1358, 2562, 2386
11876, 2562, 1358,  863, 2386
11877, 1364, 1070, 1068, 1369
11878, 1219, 2132, 2634, 2133
11879, 1418, 1458, 1456, 1164
11880, 1213, 1683, 1212, 1986
11881, 1346, 1820, 2124, 1973
11882, 2562, 1358, 1359,  863
11883, 2658, 2418, 2041, 2039
11884, 2039, 2658, 2418,  748
11885, 1604, 2405, 2040, 2039
11886, 2410, 2415, 2281, 2039
11887, 2279, 2418, 2422,  747
11888, 2643, 2524,  143,  886
11889, 2643, 2644,  642,  643
11890, 2643,  643, 2642, 2644
11891, 2199, 2655, 2260, 2644
11892, 2072, 2073, 2030, 1571
11893, 1914, 2425, 1260,  821
11894, 2282, 1543, 1541, 2280
11895, 1256, 1261, 1933, 2123
11896, 1959, 1386, 1614, 1384
11897,  840, 1442,  841, 1914
11898, 1933, 1256, 2123, 1914
11899, 1257, 1349, 1442, 2158
11900, 2417, 1914,  840,  821
11901, 2417,  840, 1914, 2123
11902, 1106, 2070, 1780, 2382
11903, 1802, 2209, 1834, 1988
11904, 1924, 1704, 1990, 1708
11905, 1704, 1708,  335, 1990
11906, 1837, 1912,  495,  501
11907, 2585,   95, 2573,  849
11908, 2585,   95,  868,   96
11909, 2585,   96, 2590,  461
11910, 2587, 1652, 2585, 1535
11911, 2030, 1570, 1571, 1596
11912, 2065,  544, 2620, 2348
11913, 2065, 2348, 2599, 2617
11914, 2065, 2066,  544,  550
11915, 2065, 2624, 2066,  550
11916, 1356, 2274, 2270,  825
11917, 2270, 2507,  807, 2499
11918, 2270, 2506, 2507, 2499
11919, 1390, 1941,  220, 1493
11920, 2299,  206, 1742, 2305
11921, 2088, 2300,  481, 1880
11922, 1941, 2318, 2305,  219
11923, 1941, 2318,  219,  220
11924, 1390, 2330,  208, 2327
11925, 2197, 1852, 2122, 1853
11926, 1879, 1611, 2327, 1881
11927, 2167, 2233,  900,  899
11928, 2059, 1963, 2022,  878
11929, 1102, 2236, 2317, 2233
11930, 1849, 1346, 1820, 2124
11931, 2239,  716,  710,  717
11932, 1818,  717, 2239,  711
11933, 2124, 2094, 2081, 1849
11934, 2101, 1818,  718, 2100
11935, 1261, 1442, 1916, 2123
11936, 1332, 1447, 1628, 1339
11937,  717, 1850, 2100, 2239
11938, 2002,  425, 2551,  426
11939, 2002,  426, 2551, 2553
11940, 2002, 2553, 2551, 2253
11941, 2002, 2551, 2550, 2253
11942, 2002, 2552,  425,    3
11943, 2275,  433, 2566,  439
11944, 1161, 2275, 2565, 2567
11945, 2566, 2564,  434,  433
11946, 2566, 2567, 1331, 2564
11947, 2214,  426, 2553,  427
11948, 2214,   22, 2205,  183
11949, 2214, 2222, 2253,  184
11950, 2214, 2002,  426,   21
11951, 2623, 2065,  545,  551
11952, 2623, 2617, 1025,  116
11953, 2623, 2065, 2600, 2599
11954, 2623, 2618,  117, 1026
11955, 2165,  965, 2616, 1854
11956, 2008, 2628, 2165,  966
11957, 2086, 2009, 2008, 2121
11958, 2165, 2121,  946, 1854
11959, 2165, 2121,  947,  946
11960, 2008, 2009,  947, 2121
11961,  776, 1744, 1745, 1848
11962, 1324, 1646, 1647, 2566
11963, 2357, 2577, 2143,  769
11964, 1744,  782, 1329, 1331
11965, 1320, 1745, 1744, 1848
11966, 1319, 1327, 2572, 1741
11967, 1745, 1575, 1747, 2542
11968, 2558,   63, 2513,  674
11969, 2558, 2513, 2622,  674
11970, 2558, 2479, 2622, 2543
11971, 2558,   63,  675,   64
11972, 2480,  421, 2558,   64
11973, 2480, 2543, 2269, 2479
11974, 2480,   64, 2558,  675
11975, 2478, 2480, 2269, 2479
11976, 2480,   65,   64,  676
11977, 2511, 2558, 2622, 2543
11978, 2511,  422, 2558, 2543
11979, 2511, 2544,  409, 2543
11980, 2510, 2511, 2513, 2622
11981, 2511,  423, 2512, 2513
11982, 2366, 1712,  347, 2277
11983, 1273, 1283, 1215, 1274
11984, 2299, 2300, 2088, 1743
11985, 1696, 1207, 2551, 2553
11986, 1787, 2317, 1169, 1789
11987, 2366, 1721, 1722,  347
11988, 1399, 1712, 2366, 2277
11989, 2366, 1288, 1594, 1923
11990, 2412, 2242,  287, 1948
11991, 2416, 2389,  274,  273
11992, 2412,  288, 2413, 1948
11993, 2412, 2413,  275, 2249
11994, 1518, 2045, 2004,  269
11995, 1517, 2166, 1518, 1516
11996, 1518, 2102,  256, 2664
11997, 1518, 2664,  256,  269
11998, 1710,  334, 1712, 1709
11999, 1703, 1709, 1710, 1712
12000, 1205, 1204, 2254, 2290
12001, 1604, 1477, 1216, 2042
12002, 1709, 1705,  321, 2060
12003, 1702, 1704, 2254, 1705
12004, 1702,  322, 1704,  335
12005, 2468, 2181,  445, 2182
12006, 2468, 2181,  444,  445
12007, 2273, 2181, 1649, 2278
12008, 2273, 1371, 2468,  438
12009, 2275,  439,  432,  433
12010, 1440, 1656, 2183, 2027
12011, 2273,   30, 1371,  438
12012, 2273, 1649,  187, 2278
12013, 2567, 2566, 1647, 2275
12014, 1415, 1515, 1966, 1413
12015, 1051, 1964, 1056, 1965
12016, 1515, 1966,  998, 1952
12017, 1415, 1952, 1515, 2131
12018, 2163, 2648,  148,  683
12019, 2163,   12,  154,  148
12020, 2163,  154,   12,  147
12021, 2163,  147, 2162,  810
12022, 2163,  647, 2537, 2162
12023, 2601, 1838, 2597,  503
12024, 2597,  503, 1838,  497
12025, 2206, 2202, 2597, 1838
12026, 2597,  102, 2367,  982
12027, 1501, 2624, 2349, 2066
12028, 1501, 2619, 2451, 2111
12029, 2170, 2426, 2387, 2619
12030, 1898, 2349, 2502, 2016
12031, 1501, 2619, 2600, 2451
12032, 1932, 1762, 1987, 1981
12033, 1762, 1987,  587,  593
12034, 1762, 2069, 1032,  123
12035, 1932, 1987, 1762, 1783
12036, 1762, 1987,  593, 1783
12037, 2303,  492, 1610,  498
12038, 2303, 2308,   40,  498
12039, 2331, 2308, 2303,  498
12040, 1945, 1949, 2469, 1947
12041, 1945, 1587, 1903, 1946
12042, 1949, 1947,  553, 2469
12043, 1949, 1947, 2419,  547
12044, 1949,  554, 2398, 2427
12045, 1903, 2103, 2419, 1946
12046, 1730, 1413, 1017, 1016
12047, 1416, 1730, 1966, 2467
12048, 1902, 1512, 1684, 1510
12049, 1512, 2210, 1730, 2207
12050, 1730, 2467, 1036, 1017
12051, 1413, 1966, 1017,  998
12052, 2313, 2312,  778,  779
12053, 1747,  778, 2313, 2312
12054, 1591, 1940, 1590, 1378
12055, 2388, 1874,  766,  772
12056, 1632, 2388, 2313, 1874
12057, 1934, 1748,  794,  813
12058, 1444, 2465, 2659, 1445
12059, 1586, 1144, 1145, 1158
12060, 2251, 2023, 2196, 2200
12061, 2023,  915, 1970,  896
12062, 2023,  897, 2022, 2200
12063, 1555, 1807, 1804, 2439
12064, 2299, 2300, 1881, 2142
12065, 1774, 1445, 1446, 2060
12066, 2295, 2505,  474,  468
12067, 2298, 2505, 2295, 2192
12068, 2283, 2505,  468, 2297
12069, 2295, 2192, 2505, 2137
12070, 2283, 2505, 2297, 2137
12071, 2212, 2219, 2218, 2508
12072, 2212, 2218, 2533, 2508
12073, 2212,  405, 2219, 1793
12074, 1792,  404, 2212, 1793
12075, 1792, 1678, 2212,  391
12076, 1792, 2212,  404,  391
12077, 2580,   93, 2198,  811
12078, 2580,  830,   94,   93
12079, 2580, 2573,  830, 2141
12080, 2575, 2576,  442,  443
12081, 2591, 2583,   98,  906
12082, 2591,  473, 1527,  467
12083, 2591,  473, 2188, 1527
12084, 2591,   97, 2590,  887
12085, 2589, 2582,  479,  485
12086, 2555, 2598, 2589, 2582
12087, 2589, 2338,  100,  944
12088, 2555, 2338, 2589,  944
12089, 1511, 1509, 1798, 2639
12090, 1294, 1295, 1798, 2497
12091,  916, 2251,  936, 2200
12092, 1798,  957, 2268, 2639
12093, 1674, 2594, 2332, 2159
12094, 1124, 2582, 1126,  484
12095, 1124, 2188,  478, 1318
12096, 1315, 1124, 1318, 2188
12097, 1124, 1126,  483,  484
12098, 1125, 2087, 1126, 2555
12099, 1315, 1528, 1580, 2189
12100, 1315, 2598, 2582, 2188
12101, 1314,  476, 1870, 2096
12102, 1371,  438,   29,  432
12103, 2273,  186, 1371,   30
12104, 1371,  438,   30,   29
12105, 1255, 1253, 2075, 2064
12106, 1648, 1651,  198,  199
12107, 1648, 2275, 2468, 1371
12108, 2275, 2565,  433,  432
12109, 2273, 2468,  444,  438
12110, 2273, 2278,   31,  444
12111, 1648,  186, 2273, 1649
12112, 2273,  444, 2468, 2181
12113, 2284, 1645, 1655, 1651
12114, 1648, 1647, 2334, 1651
12115, 2357, 1574, 2315, 1633
12116, 1645, 1648, 1647, 1646
12117, 1439, 1732, 1659, 1658
12118, 1324, 2566, 2567, 1331
12119, 2135,  781, 1848, 1647
12120, 1377, 1378, 1590, 1871
12121, 1656, 2027, 1654, 2509
12122, 2565,  433,   86,   87
12123, 2565, 2564,   87,  787
12124, 1186,   86, 2565,  432
12125, 2271,  185, 1162, 1371
12126, 1371, 1162, 1161, 1186
12127, 1186,   85,  185, 1162
12128, 2275,  438, 1371,  432
12129, 2283,  462, 2297,  468
12130, 2283, 2295,   35,  468
12131, 2283, 2295,  468, 2505
12132, 2283, 2137, 2193,  190
12133, 2144,  450, 2509,  456
12134, 2144, 2293,   33,  456
12135, 2144,  456, 2509, 2584
12136, 2144, 2286, 1654,  188
12137, 2569,  435, 2563,  434
12138, 2569,   88, 2564,  788
12139, 2569, 2571,   89,  789
12140, 2569, 2566,  434, 2563
12141, 2011,  942, 2645,  943
12142, 2012,  637, 1185, 2638
12143, 2329, 2011, 2255, 2132
12144, 2106,  168, 2662,  767
12145, 2662,  168,  796,  169
12146, 2662,  169,  796,  795
12147, 2388, 1934, 2313, 2662
12148, 1934, 2661, 2662,  795
12149, 2388, 2662, 2106, 2107
12150, 2560, 2138,  790,  791
12151, 2560, 2186, 2663, 2312
12152, 2560,  790, 2191, 2574
12153, 1741,  784, 2574, 1329
12154, 2336, 2186,  793, 2663
12155, 2336, 2663,  171,  785
12156, 2256, 2494, 1859, 1917
12157, 1895, 2594, 1897, 2292
12158, 1671, 2332, 1675, 1672
12159, 1676, 2594, 2503,  588
12160, 2159, 2503, 1674, 2594
12161, 2298,   36, 2295,  474
12162, 2299, 2088, 2298, 2192
12163, 2299,  193, 2298, 2142
12164, 2088, 2298, 2192, 2505
12165, 2298,  193,   36,   37
12166, 2647, 2162,  146,  829
12167, 2647, 2536,  646, 2162
12168, 2647, 2536,  645,  646
12169,  829, 2647, 2652, 2653
12170, 2275, 2565, 2567, 2564
12171, 1648, 1161, 2174, 2334
12172, 1648, 1646, 2468, 2275
12173, 2027, 2584, 2509, 1679
12174, 2275, 2565, 2564,  433
12175, 1648, 1161, 2275, 1371
12176, 1930, 2114, 1470, 2603
12177, 2113, 2307,  510, 2115
12178, 1383, 1942, 2112, 2115
12179, 2114,  512, 1470,  518
12180, 2331, 2326, 1942, 1610
12181, 1676,  588,   56,   55
12182, 1671, 1676, 2594, 2503
12183, 1676, 1678, 2514, 2503
12184, 1671, 1676, 2503, 1678
12185, 1672,  377, 1917,  364
12186, 1676,   55, 1677,  588
12187, 1676,   56, 2514,  379
12188, 2510, 1637,  667, 2549
12189, 2510, 2546, 2549,  673
12190, 1682, 1637, 2510, 2549
12191, 1682, 2510, 2007, 2622
12192, 2228, 2024, 2277,  346
12193, 1839, 2228, 2024, 2277
12194, 2228,  347, 1722,  360
12195, 2228,  347, 2366, 1722
12196, 2566, 1647, 2275, 1646
12197, 1815, 1782, 2228, 1812
12198, 1882, 2262, 2481, 2264
12199, 1857, 1885, 1889, 1846
12200, 1888, 1886, 2479, 2269
12201, 2006, 2264, 2481,  664
12202, 1857, 1886, 1716, 2006
12203, 1887, 1888, 1927, 1886
12204, 1888, 2269, 2156, 1927
12205, 2006, 2538,  664,  663
12206, 1716, 2640, 2006, 2007
12207, 1890, 1958, 1163, 2429
12208, 2472,  340, 2460,  327
12209, 2472, 2432,  570,   52
12210, 2472, 2460, 2487, 2613
12211, 2472, 2485,   53,  576
12212, 2608,  514, 2592, 2606
12213, 2309,  106, 2606,  514
12214, 1929, 2602, 2309,  507
12215, 2592, 2309, 2593, 2602
12216, 1929,  507, 2309,  107
12217, 2601,  509, 2606,  508
12218, 2601, 2596,  509,  503
12219, 2592, 2309, 2606,  514
12220, 2592, 2309,  514, 2593
12221, 2592,  507, 2309, 2602
12222, 2592, 2602,  501,  507
12223, 2106,  767, 2420,  761
12224, 2127, 2106, 2420,  761
12225, 2106, 2662,  168,  796
12226, 2106, 2420, 2107, 2424
12227, 1898, 2016, 2051, 2066
12228, 2170, 1498, 1501, 2349
12229, 2267, 1005, 2599, 2265
12230, 2017, 2252, 2267, 2265
12231, 2267, 1007, 2600, 1006
12232, 1812,  385, 2310, 1816
12233, 2406,  399, 2408,  398
12234, 2406, 2310,  398, 2650
12235, 1811, 1812, 2310, 1816
12236, 1284, 2406, 2650, 2310
12237, 2409, 2408, 2521,  399
12238, 2113,  109,  511,  510
12239, 2113,  510,  110,  109
12240, 2311, 2113,  110,  504
12241, 1930, 2603, 2113, 2114
12242, 2113, 2308, 2307, 2331
12243, 2113, 2114, 2115,  510
12244, 2453, 2470,  301,  314
12245, 2453, 2399,  558,   50
12246, 2453,   51, 2432,  314
12247, 2453, 2470, 2454, 2469
12248, 2009, 2449, 2008,  948
12249, 2057, 2449,  949, 2053
12250, 2102, 1325, 1147, 1723
12251, 2299, 1742, 1743, 2089
12252, 1662, 2057, 2053, 2449
12253, 1645, 1323, 1659, 1439
12254, 1977, 2008, 2009, 2449
12255, 1598, 2143, 1900, 1877
12256, 1899, 1900, 2364, 2272
12257, 2033, 2031,  264, 2359
12258, 1595, 1576, 1572, 1597
12259, 1604, 1627, 2039, 2418
12260, 1600, 2342, 1589, 1899
12261, 2030, 1596, 2359, 2031
12262, 2340,  448, 1978,  447
12263, 1900, 1589,  751, 2272
12264, 2610,  111,    9,  104
12265, 2147,  515, 2610,  111
12266, 2610,    9,  515,  105
12267, 2610,  105, 2606,  509
12268, 2608, 2610,  515, 2606
12269, 2601, 2597, 2206, 2596
12270, 1930, 2603,  506,  505
12271, 1930,  109, 2113,  505
12272, 1930, 2113,  511, 2114
12273, 1930, 2114,  512, 1470
12274, 1929, 2602,  506, 2603
12275, 2059,  878, 2022,  877
12276, 2232, 2167, 1963, 2233
12277, 1809, 2059,  877, 1231
12278, 2340, 1978,  448, 2559
12279, 1186,  185,    5,   29
12280, 1186,    5,  185,   85
12281, 1186,   29, 1371,  185
12282, 2462, 1919,  865,  846
12283, 1195, 1716, 1192, 2640
12284, 1919, 1918,  865, 1920
12285, 1553, 2656, 1920, 1919
12286, 2296, 1919,  847, 2653
12287, 1193, 2611, 1200, 1197
12288, 1929,  107,  512,  108
12289, 1929,  108, 1930,  506
12290, 1929, 1930, 2603,  506
12291, 1929,  107, 2309,  513
12292, 2041, 2129,  799,  798
12293, 2020, 2179, 2362, 2172
12294, 2129, 2658,  749,  755
12295, 2129,  755, 2128, 2658
12296, 2041, 2129, 2128, 2658
12297, 2041, 2127,  797, 2424
12298, 2415, 2129, 2041, 2658
12299, 2129,  165, 2657,  799
12300, 2581, 1137,  932, 2448
12301, 1247, 2581, 2448, 1137
12302, 1247, 2448, 2581, 1806
12303, 1063, 1393, 1767, 1869
12304, 1968, 1122, 1969, 1116
12305, 2581, 1803, 1806,  893
12306, 1450, 1251, 1112, 1136
12307, 2045, 2005, 2004, 2407
12308, 1539, 1259, 1541, 1542
12309, 1263, 1335, 1337, 1261
12310,  441,  447, 2559, 2341
12311, 2280, 1531,  741, 1599
12312, 1261, 2304, 2123, 1915
12313, 1542, 1531,  735, 1539
12314, 2638,  137,  943,  138
12315, 2638,  962,  943,  137
12316, 2638,  138, 2471,  636
12317, 2638, 2012,  636, 2471
12318, 2012, 2011, 2471, 2638
12319, 2638, 2011, 2013, 2012
12320, 2608,  521, 2146,  520
12321, 2601,  509, 2610, 2606
12322, 2608, 2592,  514, 2593
12323, 2199,  642, 2260,  139
12324, 2199,  142, 2643,  642
12325, 2199,   11, 2471,  924
12326, 2260,  924, 2645, 2655
12327, 1496, 1670,  233, 1493
12328, 1496,  233, 1670,  246
12329, 1670, 1496, 1132, 1493
12330, 2586, 1496, 1670,  246
12331, 1310, 1423, 1424, 1469
12332, 1242, 1367, 1366, 1662
12333, 1200, 2605, 1883, 2535
12334, 1819,  712, 1818,  711
12335, 2239, 1849, 1346, 1820
12336, 1201, 2507, 1397, 2492
12337, 1201, 2296, 2464, 2492
12338, 1982, 1847,  692,  693
12339, 2633, 2605, 1397,  694
12340, 1943, 1200, 2539, 1197
12341, 1998, 1889, 1937, 1938
12342, 1354, 1342, 1361, 1341
12343, 2628,  986, 2265,  985
12344, 1861, 2627, 2628, 2265
12345, 2628, 2165,  966, 2616
12346, 2008, 2252, 2628,  967
12347, 2353,   45, 2369,  236
12348, 2353,  236, 1392,  223
12349, 2353, 1388, 1392, 2370
12350, 2353, 2368,  236, 2369
12351, 2119,  223, 2353, 1392
12352, 2119, 2115, 1388,  516
12353, 2119, 2353,   44,  522
12354, 2119,  223, 2328,  210
12355, 2115, 2328,  210, 2119
12356, 1490, 1489,  453, 1978
12357, 1819,  704, 1820, 1972
12358, 1350, 2101, 2274, 2276
12359, 1818, 2239,  717, 2100
12360, 1855, 1257, 1850, 2629
12361, 2281, 2415,  819,  818
12362, 2415, 2410,  819,  800
12363, 2261, 2404,  679, 1939
12364, 2415, 2410,  800, 2657
12365, 2415, 2039, 2410, 2446
12366, 2404,  153,  679,  678
12367, 2404,  152,  679,  153
12368, 2478, 1939, 2404, 2481
12369,   68, 2541,  406, 1616
12370, 1490,  446, 1635, 2341
12371, 2261,  152, 2404,  671
12372, 2147, 1020, 2608, 2607
12373, 2147, 2608,  515,  521
12374, 2147,  111, 2610, 1020
12375, 2147, 2608, 1020, 2610
12376,  804,  824,  805, 2383
12377, 2383,  160,  713,  159
12378, 2383,  160,  159,  805
12379, 2383, 2217,  160,  804
12380, 2383, 2473,  805,  159
12381, 1787, 1290, 1178, 1786
12382, 1292, 1787, 1994, 1785
12383, 1787, 1785,  939, 1994
12384,  900,  919, 1996, 2317
12385, 1440, 1491, 1490, 1437
12386, 1996, 1787,  920, 1994
12387,  936, 1788,  937, 2237
12388, 2176,  731, 2180,  725
12389, 2176, 2217,  161,  725
12390, 2176, 2180, 1260, 2501
12391, 2176,  162, 2177,  731
12392, 1603, 2323, 1935, 2324
12393, 1680, 1438, 1679, 2027
12394, 2323,  834, 1935, 2324
12395, 1595, 1643, 1393, 1570
12396, 1440, 1491, 2027, 2183
12397, 2323, 1217, 2561,  853
12398, 1591, 1936, 1935, 1934
12399, 2195, 2497, 1891,  955
12400, 2299, 2298,  192, 2192
12401, 1859, 1370, 2256, 1828
12402, 2035, 2195, 1891, 2570
12403, 2067, 1891,  973, 2036
12404, 1932, 1014, 1689, 1902
12405, 2336, 2139,  172,  792
12406, 2336, 2560,  785,  791
12407, 2336, 2663, 2560, 2186
12408, 2140, 2336, 2560, 2186
12409, 2198, 2575, 2560, 2139
12410, 2490, 2153, 2491,  809
12411, 2490, 2153,  155,  689
12412, 2153,  810,  155,  154
12413, 2153, 2163,  810,  154
12414, 2153, 2163, 2648, 2537
12415, 2423,   74, 2489,  720
12416, 2423, 2463,  726,  720
12417, 2423, 2421, 2463, 2609
12418, 1355,  826, 2464,  845
12419, 2462, 1355, 2464,  845
12420, 1921, 1202, 1919, 2296
12421, 2464,  826, 2507,  827
12422, 2296,  827, 2492,  828
12423, 2074, 2507, 1355, 2270
12424, 1199, 2605, 2633, 1982
12425, 2296,  828, 2653,  847
12426, 1701,  415, 1771, 1773
12427, 1999, 1773, 1772, 2234
12428, 1701, 1771,  402, 1697
12429, 1701,  402, 1771,  415
12430, 1824, 1771,  402,  403
12431, 1408, 1760, 1759, 1772
12432, 1411, 1692, 1691, 1405
12433, 2010, 1630, 2013, 1185
12434, 2299, 2192,  192,  205
12435, 2225, 2521, 1812,  386
12436, 2408, 2521,  399, 2406
12437, 1380, 1461, 1871, 1297
12438, 1821, 1785, 2268, 1291
12439, 1327, 2572, 2341, 1324
12440, 1735, 1736, 1734,  578
12441, 1897,  577, 1739,  578
12442, 1735,  578, 1734, 1739
12443, 1043, 1827, 1301, 1826
12444, 1897, 2594,  583, 2292
12445, 1897, 1739,  577, 1896
12446, 2661,  169, 2662,  795
12447, 2661, 2313,  773,  779
12448, 1934, 2662, 2661, 2313
12449, 1934, 2313, 2661, 1748
12450, 2437, 1397,  695,  701
12451, 2490,  695, 2437, 1397
12452, 2437, 2507,  808, 2492
12453, 2437,  157, 2499,  701
12454, 2261, 2404,  152,  679
12455, 2127, 2128,  755,  761
12456, 2127,  166, 2129,  798
12457, 2041, 2127, 2129,  798
12458, 2127, 2106,  167,  797
12459, 2261,  671,  151,  152
12460, 2576, 2580, 2140, 2141
12461, 1978, 2576,  448, 2559
12462, 2576, 2580,  443, 2198
12463, 2140, 2580,  830, 2141
12464, 2575, 2560, 2221, 2140
12465, 2559, 2221, 2575, 2191
12466, 2560, 2198, 2336, 2140
12467, 2490,  809,  156,  155
12468, 2490, 2153,  809,  155
12469, 2490, 2437,  156,  808
12470, 2490, 2153,  689, 2491
12471, 2490, 1397, 2437, 2492
12472, 2596, 2608, 1020, 2607
12473, 2596, 2597,  103,  503
12474, 2596,  103, 1020,  104
12475, 2206, 2596, 2597, 1001
12476, 2601, 2608, 2596, 2607
12477, 1837, 2601, 1911, 2592
12478, 2390,  541, 2414,  540
12479, 2390, 2249,  540, 2414
12480, 2103, 2414, 2190, 2419
12481, 2390, 2350,  534, 2250
12482, 2383, 2473,  159,  713
12483, 2473,  806,  159,  158
12484, 2383, 2101, 2473,  713
12485, 1356, 2074, 1350, 1354
12486, 2473, 2499,  806,  158
12487, 1344, 2270, 2499, 2506
12488, 2230, 2231, 2229, 2361
12489, 1344, 2101,  706,  707
12490, 1537, 1535, 1536, 1558
12491, 1604, 1605, 1627, 1602
12492, 1968, 1970, 1122, 1136
12493, 1867, 1396, 1483, 1866
12494, 2185, 1866,  294, 2659
12495, 1178, 1295, 1305, 2396
12496, 1191, 1190,  660, 1986
12497, 1224, 1621, 1221, 2527
12498, 1212,  178, 2253, 1984
12499, 1984, 1212,  178,   18
12500, 1994, 1292, 1785, 1993
12501, 2540,  684, 1616, 2541
12502, 2541,  684, 1616,   68
12503, 2540, 1938, 1616,  684
12504, 1616, 1938,  690,  684
12505, 1955, 2156, 1616,  406
12506, 2376, 2364,  263,  250
12507, 1900, 2034,  756,  757
12508,  250,  756, 2356,   80
12509, 2034,  756, 2356,  250
12510, 2376,  750,  263, 2364
12511, 2364, 1900, 2034,  750
12512,  750, 2376,  263,   79
12513, 2223, 2556, 1592, 2302
12514, 1817, 2633, 2506,  700
12515, 2074, 2633, 1397, 2506
12516, 2633, 1982,  693,  699
12517, 2633, 1982,  694,  693
12518, 2633,  694, 1982, 2605
12519, 2296, 2464, 2492,  827
12520, 1888, 1938, 1939, 1889
12521, 2474,  708,   72,   71
12522,  702, 2474, 2373,   71
12523, 2474,   72, 2475,  354
12524, 2474, 2475,  708, 2430
12525, 2517, 2477, 2474, 2430
12526, 2145, 2146,  521,  527
12527, 2145, 2147, 1021,  112
12528, 2145, 1713,  113, 1022
12529, 2145, 2607, 2147, 2146
12530, 2389, 2391,  274,  261
12531, 2554, 2354,  261,  248
12532, 2103, 2419, 1946, 2414
12533, 2103, 2190, 1551, 2419
12534, 2576, 2198, 2140, 2580
12535, 1741, 2572, 1329, 2574
12536, 2221, 2140, 2187, 2141
12537, 2576,  448, 2559,  442
12538, 2576, 2580, 2141, 2573
12539, 2575, 2576, 2198, 2140
12540, 2575, 2576,  443, 2198
12541, 2579, 2573, 2576, 2141
12542, 1684, 1615,  126, 1035
12543, 1615, 1684,  605, 2210
12544, 1512, 1413, 1730, 1510
12545, 1730, 1413, 1016, 1510
12546, 1730, 1036, 2467, 1615
12547, 1512, 1730, 1416, 2207
12548, 1512, 1902, 1684, 2210
12549, 2517, 1973, 2430,  703
12550, 2517, 2477, 1958, 2433
12551, 2433, 2373, 1954, 2517
12552, 2517, 1973,  703, 2483
12553, 2517, 2430, 2474,  702
12554, 1958, 2433, 2001, 2517
12555, 1543, 1539, 1541,  735
12556, 2027, 1654, 2509, 2286
12557, 1559, 1627, 2039, 2405
12558, 1426, 1447, 1775, 2335
12559, 2280, 1541,  736,  735
12560, 2280,  736, 2445,  742
12561, 2282, 2446, 2280, 2445
12562, 2280, 2039,  748, 2446
12563, 1241, 1248, 1245, 1278
12564, 1755,  931, 2392,  930
12565, 1725, 1727, 1732, 1658
12566, 1755, 1283,  892, 1757
12567, 1755,  910, 1505, 1757
12568, 1338, 1394, 1339, 1478
12569, 2093, 2615,  984, 2616
12570, 2093,  964, 2091, 1852
12571, 2093, 2616,  965, 1854
12572, 1002, 2093,  983, 2202
12573, 2230, 2231,  563,  569
12574, 2230, 2173, 1028,  119
12575, 2230, 2231, 2361, 2426
12576,  613, 1692, 1688, 1612
12577, 1612, 1692, 1688, 1411
12578, 1760, 1792,  404,  403
12579, 1412, 1613, 1406, 1810
12580, 1405,  613,  607, 1612
12581, 1692, 1405, 1612,  613
12582, 1801, 1404, 1759, 2235
12583, 1833, 1560, 1771, 1824
12584, 1189, 1682, 1986, 1637
12585, 1715, 1887, 1884, 1858
12586, 1682, 2510, 2622, 2511
12587, 1192, 1682, 1637, 2007
12588, 1481, 1736, 2019, 1989
12589, 1482, 1750, 1751, 1981
12590, 1335, 1261, 1915, 1337
12591, 1751, 1932, 1988, 1987
12592, 1802, 1751, 1932, 1988
12593, 1751, 1932, 1987, 1981
12594, 1304, 1040, 1308, 1826
12595, 1064, 1394, 1063, 1396
12596, 2554, 2389, 2354, 2390
12597, 2554, 2389, 1092, 2352
12598, 2532, 1822,  958, 2130
12599, 2118,  247, 2352,  246
12600, 2554, 2389,  260,  261
12601, 2554, 2000, 2390, 2354
12602, 1237, 1382, 1913, 1550
12603, 2390, 2000, 2554, 2103
12604, 2379, 2085, 2051, 2061
12605, 2352, 1669,  246,  259
12606, 1338, 1261, 1337, 1554
12607, 2151, 2150, 1483, 1867
12608, 1908, 2342, 1589, 1600
12609, 1626, 1657, 1908, 1686
12610, 1375, 1374, 1732, 1659
12611, 1537, 1583, 2321, 1580
12612, 1460, 1549, 1588, 1679
12613, 1316, 1317, 1465, 1315
12614, 1978, 1328, 1437, 1436
12615, 1758, 1483, 1447, 2465
12616, 1427, 1334, 1617, 1430
12617, 1539, 1531, 1538, 1542
12618, 2185, 2005, 2401, 1931
12619, 2532, 1785, 2496, 2493
12620, 1268, 1144, 1586, 1924
12621, 1703, 1702, 1704, 1708
12622, 1815, 1812, 2228, 1722
12623, 1720, 2272,  744,  745
12624, 1653, 1720, 2358,  276
12625, 2395, 1634,  276, 1720
12626, 2395,  744,   78, 1634
12627, 1375, 1571, 1574, 1659
12628, 1576, 1216, 1218, 1603
12629, 1600, 1627, 1532, 1625
12630, 2029, 2375, 2636, 2561
12631, 1656, 1439, 1655, 2027
12632, 1980, 1378, 1566, 2302
12633, 1327, 1324, 2341, 1635
12634, 1974, 1975,  217,  230
12635, 1974, 2305,  218, 1975
12636, 1795, 1495, 1974, 1796
12637, 1494, 1975, 1974, 1796
12638, 1974, 2305, 1495,  218
12639, 1862, 1861, 2628, 2252
12640, 1913, 2529, 2381, 1387
12641, 1860, 2616, 2093, 1854
12642, 2203, 2206, 1838, 2202
12643, 1473, 1836, 2529, 1471
12644, 1861, 1860, 2627, 1835
12645, 2058, 2112, 2603, 1472
12646, 2203, 1851, 2092, 2204
12647, 1911, 2601, 1838, 2206
12648, 1542, 2629, 2149, 1259
12649, 1543, 2280, 1599, 1531
12650, 1532, 1533, 1531, 1599
12651, 1604, 1216, 2044, 2042
12652, 2522, 2042, 1217, 1216
12653, 1601, 2424, 1936, 2420
12654, 2042, 2044,  835, 2325
12655, 1604, 2043, 2040, 2405
12656, 2532,  939, 1994,  940
12657, 2042, 2522,  855, 2043
12658, 1626, 1758, 1657, 2150
12659, 1256, 1266, 1260, 1933
12660, 1057, 1058, 1396, 1769
12661, 1338, 1556, 1557, 2304
12662, 1258, 1541,  729,  730
12663, 1064, 1061, 1063, 1393
12664, 1101, 1111, 1104, 1110
12665, 2228, 1288, 1564, 1839
12666, 1815, 1288, 1722, 2228
12667, 1224, 1579, 1223, 1180
12668, 2532, 1785,  939,  958
12669, 1284, 1154, 2227, 1282
12670, 2052, 1768, 1928, 1116
12671, 1791, 2050, 2452, 2454
12672, 1791, 2452, 2470, 2454
12673, 1791, 1951, 2470, 2458
12674, 1272, 1790, 1145, 1146
12675, 1738, 2487, 2460, 2613
12676, 2050, 2452, 2460, 2442
12677,  940, 2493, 1993, 2532
12678, 1968, 1112, 1136, 1122
12679, 1102, 1441, 2317, 1385
12680, 1171, 1960, 1170, 1168
12681, 1103, 1916, 1959, 1961
12682, 1428, 1333, 1607, 1427
12683, 1563, 1399, 2277, 1712
12684, 1110, 1712, 1711, 1563
12685, 1711, 1776, 1775, 2063
12686, 1777, 1110, 1712, 1711
12687, 1774, 2063, 1775, 1445
12688, 1427, 1776, 2109, 1617
12689, 1776, 1775, 1427, 1110
12690, 1924, 1401, 1400, 1704
12691, 1290, 1169, 1789, 1787
12692, 1352, 1165, 1358, 1359
12693, 1347, 1384, 1351, 1353
12694, 1967, 1165, 1358, 1353
12695, 1814, 1582, 1813, 1109
12696, 1351, 2547, 1349, 2158
12697, 2014, 1814, 1782, 2117
12698, 1561, 1792,  390, 1673
12699, 1294, 1751, 1750, 1995
12700, 1764, 1272, 1665, 1765
12701, 2067, 1995, 1750,  994
12702, 2067, 1891,  974,  973
12703, 2459, 1944, 2169, 1764
12704, 2067,  974, 2497,  975
12705, 2067, 2497,  994,  975
12706, 1190, 1214,    2, 1212
12707, 1214,  624, 2630, 2259
12708, 1208, 1985, 1618, 1524
12709, 1214,  624, 2259,  141
12710, 1214, 2259,    2,  141
12711, 2548, 1189, 1581, 1282
12712, 1985,   17, 2220,   18
12713, 1189, 1213, 1986, 1683
12714, 1562, 1524, 1985, 1630
12715, 1211, 1224, 1219, 2015
12716, 1219, 2645, 2133, 2655
12717, 1509, 1798, 2639,  976
12718, 2428,  995, 1509, 1689
12719, 1999, 1770, 1408, 1772
12720, 2496, 1530, 1523, 1983
12721, 2428, 1798,  976,  975
12722, 2428, 1509,  976, 1798
12723, 2078, 1694, 1700, 2079
12724, 1514, 1510,  996,  997
12725, 1514, 2130,  978,  977
12726, 1067, 1525, 1523, 1530
12727, 1824, 1832,  389,  402
12728, 1824, 1771, 1833,  402
12729, 2435,  390, 1824,  389
*Elset, elset=vs
5
6
7
8
10
17
18
19
20
24
25
26
27
28
32
34
36
37
38
39
40
41
42
43
44
45
46
47
48
49
50
51
52
55
60
61
62
63
64
65
68
73
74
76
77
78
79
80
86
88
91
92
93
94
95
96
97
98
99
103
106
107
113
114
115
116
123
126
130
132
136
138
139
140
141
142
143
144
146
150
151
152
153
154
157
158
159
160
161
162
165
166
172
174
175
178
179
180
182
183
184
185
186
187
188
189
190
192
194
201
204
206
209
210
216
217
218
219
220
222
223
224
225
226
227
228
230
231
232
233
234
235
236
244
246
247
248
249
250
252
256
258
259
260
261
262
266
270
271
272
273
274
275
276
277
278
279
280
281
282
283
284
285
286
289
290
292
293
294
296
297
299
304
305
306
307
308
311
312
313
314
315
316
317
318
319
320
322
323
324
325
326
327
328
329
330
331
332
333
334
335
336
339
343
345
354
355
358
363
366
367
368
369
371
372
376
377
378
379
380
381
384
385
386
387
388
389
390
391
392
393
399
400
401
403
408
417
420
422
425
428
430
432
433
434
435
438
442
443
446
449
450
451
454
457
458
459
460
462
464
465
466
468
474
475
476
479
484
487
488
490
491
495
496
497
498
499
500
501
502
503
504
505
507
508
509
510
512
515
516
517
518
519
520
521
522
523
524
525
526
527
528
529
530
531
532
535
539
541
546
547
549
555
556
557
558
559
560
561
562
565
566
567
569
570
571
572
574
576
577
578
579
580
581
582
583
584
585
586
587
588
593
594
595
596
597
599
600
601
602
603
604
605
606
607
608
610
612
621
623
625
629
630
631
632
633
634
635
636
637
638
646
648
649
650
653
654
655
656
657
658
660
661
662
663
666
668
669
670
671
672
673
674
675
678
679
680
681
682
683
685
686
687
688
689
692
694
697
699
705
706
707
708
709
710
711
715
716
717
719
724
725
726
727
728
729
730
731
733
734
739
740
741
742
743
744
748
752
753
754
755
756
757
758
760
761
762
764
765
766
767
768
769
770
771
772
773
774
775
776
777
778
779
780
781
782
783
784
785
786
787
788
793
794
806
807
810
812
813
814
816
817
819
820
824
827
828
829
830
831
832
833
834
835
836
838
839
840
849
850
855
856
858
864
865
866
867
869
870
871
872
873
874
875
876
877
878
879
880
881
882
883
884
886
887
888
891
892
893
894
895
898
899
900
901
902
903
904
905
906
908
909
910
911
912
913
915
917
918
921
924
925
926
927
928
929
930
931
936
937
939
940
941
942
943
944
945
946
947
957
960
962
968
971
972
974
975
976
979
980
981
983
984
985
986
988
990
991
992
993
994
995
996
997
998
999
1000
1001
1002
1003
1004
1005
1006
1009
1010
1011
1012
1013
1014
1015
1016
1017
1018
1019
1020
1021
1023
1024
1026
1027
1028
1029
1030
1031
1032
1033
1034
1035
1037
1038
1041
1045
1047
1050
1052
1053
1054
1055
1056
1057
1058
1059
1060
1061
1062
1063
1064
1065
1068
1070
1071
1072
1073
1075
1076
1079
1080
1081
1082
1083
1084
1085
1087
1090
1102
1103
1104
1105
1106
1107
1108
1109
1110
1111
1112
1113
1114
1115
1116
1117
1118
1122
1124
1127
1128
1129
1130
1131
1132
1134
1138
1140
1141
1142
1143
1144
1145
1146
1147
1148
1149
1150
1151
1152
1153
1154
1155
1156
1157
1158
1159
1160
1161
1162
1164
1167
1171
1174
1175
1180
1183
1184
1185
1186
1187
1188
1189
1190
1191
1192
1193
1194
1195
1196
1197
1198
1204
1206
1208
1210
1211
1214
1215
1216
1217
1219
1220
1221
1222
1224
1225
1226
1227
1229
1233
1234
1235
1241
1242
1245
1250
1257
1258
1261
1263
1268
1273
1275
1277
1278
1279
1280
1281
1285
1287
1288
1289
1290
1291
1292
1293
1294
1295
1296
1297
1298
1299
1300
1301
1302
1303
1304
1305
1306
1307
1308
1309
1310
1311
1312
1313
1314
1315
1317
1318
1320
1321
1322
1323
1324
1325
1326
1327
1328
1329
1330
1332
1333
1334
1336
1337
1338
1339
1340
1341
1342
1343
1344
1345
1346
1347
1349
1354
1355
1356
1357
1358
1359
1360
1362
1363
1364
1365
1366
1367
1368
1369
1370
1371
1372
1373
1374
1375
1376
1377
1378
1386
1387
1388
1389
1391
1392
1393
1394
1395
1396
1398
1399
1400
1401
1402
1403
1405
1406
1407
1409
1413
1414
1415
1416
1417
1419
1423
1427
1431
1432
1433
1435
1436
1439
1442
1445
1446
1449
1451
1452
1456
1457
1458
1461
1462
1463
1464
1465
1467
1468
1472
1473
1474
1477
1478
1479
1480
1481
1482
1483
1484
1485
1486
1487
1488
1489
1490
1491
1492
1493
1494
1495
1496
1497
1498
1500
1502
1503
1504
1505
1506
1507
1508
1509
1516
1519
1526
1528
1529
1530
1531
1532
1533
1534
1535
1536
1537
1538
1539
1540
1541
1542
1543
1544
1545
1546
1547
1548
1549
1550
1551
1552
1553
1554
1555
1556
1557
1558
1559
1560
1561
1562
1564
1565
1566
1567
1568
1569
1570
1572
1574
1575
1576
1578
1579
1580
1581
1582
1584
1585
1587
1590
1593
1594
1595
1596
1602
1603
1604
1605
1606
1607
1608
1609
1611
1613
1614
1615
1616
1617
1618
1619
1620
1622
1623
1624
1625
1626
1627
1628
1630
1631
1632
1633
1635
1636
1638
1640
1641
1642
1643
1644
1647
1648
1649
1651
1653
1654
1656
1657
1659
1661
1662
1663
1664
1666
1667
1668
1670
1671
1672
1674
1679
1680
1681
1682
1687
1688
1689
1690
1694
1695
1696
1697
1700
1701
1707
1709
1710
1714
1716
1717
1718
1719
1720
1721
1722
1723
1724
1725
1726
1727
1728
1729
1730
1731
1732
1733
1734
1735
1736
1737
1738
1739
1741
1742
1743
1744
1745
1746
1747
1748
1750
1752
1753
1754
1755
1756
1758
1759
1760
1761
1762
1763
1765
1766
1767
1768
1769
1770
1771
1772
1773
1774
1775
1776
1777
1778
1779
1780
1781
1782
1783
1784
1785
1786
1787
1788
1792
1793
1794
1795
1796
1797
1798
1801
1802
1803
1804
1805
1806
1807
1808
1809
1810
1811
1814
1815
1816
1819
1821
1822
1823
1825
1828
1829
1830
1831
1832
1833
1834
1835
1836
1837
1838
1839
1840
1841
1842
1843
1844
1847
1848
1850
1851
1852
1853
1854
1856
1857
1858
1860
1861
1862
1863
1864
1866
1868
1871
1872
1873
1874
1875
1876
1877
1878
1879
1880
1881
1882
1883
1884
1885
1886
1888
1889
1890
1891
1892
1893
1895
1897
1898
1899
1900
1901
1902
1903
1905
1906
1908
1910
1912
1913
1914
1915
1916
1917
1918
1919
1920
1921
1922
1923
1924
1927
1928
1929
1932
1936
1937
1938
1939
1941
1943
1945
1946
1947
1948
1950
1951
1952
1953
1954
1955
1957
1958
1959
1960
1961
1962
1963
1964
1965
1966
1967
1968
1969
1971
1972
1973
1974
1975
1976
1977
1978
1979
1980
1981
1982
1983
1986
1987
1989
1992
1993
1994
1995
1996
1998
1999
2000
2001
2003
2004
2005
2006
2007
2008
2009
2010
2011
2012
2013
2014
2016
2017
2020
2024
2025
2026
2027
2028
2029
2030
2032
2033
2038
2040
2044
2045
2046
2047
2048
2049
2051
2052
2053
2054
2055
2056
2057
2058
2059
2060
2061
2062
2063
2064
2065
2066
2067
2068
2069
2072
2073
2075
2076
2077
2078
2079
2080
2081
2082
2083
2085
2086
2087
2088
2089
2090
2091
2092
2093
2094
2095
2096
2097
2098
2099
2100
2101
2102
2103
2104
2105
2106
2107
2108
2109
2110
2111
2112
2113
2114
2115
2116
2118
2121
2123
2124
2125
2126
2128
2129
2130
2131
2132
2133
2134
2135
2136
2137
2138
2139
2140
2141
2142
2143
2144
2145
2146
2147
2149
2150
2151
2152
2153
2154
2155
2156
2157
2160
2162
2163
2164
2165
2166
2167
2168
2169
2170
2171
2172
2173
2175
2176
2178
2180
2181
2183
2184
2186
2187
2188
2189
2190
2192
2200
2201
2202
2203
2204
2205
2206
2208
2209
2210
2211
2212
2213
2214
2216
2217
2218
2219
2220
2221
2222
2223
2225
2226
2227
2228
2229
2230
2231
2232
2233
2234
2235
2236
2237
2238
2239
2240
2241
2242
2243
2244
2245
2246
2249
2252
2253
2256
2260
2261
2271
2275
2278
2280
2284
2285
2286
2287
2288
2290
2291
2292
2293
2295
2296
2297
2298
2300
2301
2303
2304
2305
2306
2307
2308
2309
2310
2313
2314
2315
2316
2317
2318
2319
2320
2321
2322
2323
2324
2325
2326
2327
2328
2329
2331
2332
2338
2340
2341
2342
2343
2344
2345
2346
2347
2348
2349
2350
2351
2352
2353
2354
2355
2356
2357
2358
2359
2360
2362
2363
2364
2365
2366
2367
2368
2369
2370
2371
2373
2374
2375
2376
2377
2378
2379
2380
2381
2382
2383
2384
2385
2386
2387
2388
2389
2390
2392
2394
2395
2396
2397
2398
2399
2400
2401
2402
2403
2404
2405
2406
2407
2408
2409
2410
2411
2413
2418
2419
2420
2421
2422
2423
2424
2425
2426
2427
2428
2429
2430
2431
2432
2433
2434
2435
2436
2438
2439
2440
2441
2442
2443
2444
2446
2447
2449
2450
2451
2453
2454
2455
2457
2458
2459
2460
2461
2462
2464
2465
2466
2467
2468
2469
2470
2471
2472
2473
2474
2475
2476
2477
2478
2479
2480
2481
2482
2483
2484
2487
2488
2489
2490
2491
2492
2493
2494
2495
2496
2497
2498
2501
2503
2505
2506
2507
2509
2510
2511
2512
2513
2514
2515
2516
2517
2520
2521
2522
2523
2524
2525
2526
2527
2528
2529
2530
2531
2532
2533
2534
2535
2536
2537
2544
2545
2546
2547
2548
2549
2551
2552
2554
2555
2557
2558
2561
2562
2563
2564
2565
2566
2567
2568
2570
2571
2573
2574
2575
2576
2577
2578
2579
2580
2581
2582
2583
2584
2585
2586
2587
2589
2590
2591
2592
2593
2594
2595
2596
2597
2598
2599
2600
2601
2602
2603
2604
2605
2606
2607
2608
2610
2611
2612
2613
2614
2615
2616
2617
2618
2619
2620
2622
2623
2624
2625
2626
2627
2628
2629
2630
2631
2632
2633
2634
2636
2637
2638
2639
2640
2641
2642
2643
2644
2645
2646
2647
2648
2650
2651
2652
2653
2654
2655
2656
2657
2658
2659
2661
2662
2663
2666
2668
2669
2673
2675
2678
2679
2680
2681
2682
2683
2684
2685
2686
2687
2688
2689
2690
2691
2692
2693
2694
2695
2696
2697
2698
2699
2700
2701
2702
2703
2704
2705
2706
2707
2708
2709
2710
2711
2712
2713
2714
2715
2716
2718
2720
2721
2722
2723
2724
2726
2729
2731
2732
2733
2735
2736
2737
2738
2739
2740
2741
2742
2743
2744
2745
2746
2747
2748
2749
2750
2751
2752
2753
2754
2755
2756
2757
2758
2759
2760
2761
2762
2763
2764
2765
2766
2767
2769
2770
2771
2772
2774
2775
2777
2778
2779
2780
2781
2782
2783
2784
2785
2787
2788
2789
2790
2791
2792
2794
2795
2796
2797
2798
2799
2800
2801
2802
2803
2805
2806
2807
2808
2809
2810
2812
2813
2814
2816
2817
2818
2819
2820
2821
2824
2825
2826
2827
2828
2829
2830
2831
2832
2833
2834
2835
2836
2837
2839
2840
2841
2842
2843
2844
2845
2846
2848
2849
2850
2851
2852
2853
2854
2855
2856
2857
2858
2859
2860
2861
2862
2863
2864
2865
2866
2867
2868
2869
2870
2871
2872
2874
2875
2876
2877
2878
2879
2881
2882
2883
2884
2885
2886
2887
2888
2889
2890
2891
2892
2893
2894
2895
2896
2897
2898
2899
2900
2901
2903
2904
2905
2906
2907
2908
2909
2910
2911
2912
2913
2914
2915
2916
2917
2919
2920
2921
2922
2923
2924
2925
2926
2927
2928
2929
2930
2932
2933
2934
2935
2936
2938
2939
2940
2941
2942
2943
2944
2945
2946
2950
2951
2953
2954
2955
2956
2957
2958
2959
2960
2961
2962
2963
2965
2966
2967
2968
2970
2971
2972
2973
2974
2975
2976
2977
2978
2979
2980
2981
2982
2983
2984
2985
2986
2987
2988
2989
2990
2994
2997
3001
3002
3003
3004
3005
3007
3008
3009
3010
3011
3012
3013
3014
3015
3016
3017
3018
3019
3020
3021
3022
3023
3024
3025
3026
3028
3029
3030
3032
3034
3035
3036
3037
3038
3039
3040
3041
3042
3043
3044
3045
3046
3047
3048
3049
3051
3052
3053
3054
3055
3056
3057
3058
3059
3060
3061
3062
3063
3064
3065
3066
3068
3069
3070
3071
3072
3073
3074
3075
3076
3077
3078
3079
3080
3081
3082
3083
3085
3086
3087
3089
3090
3091
3092
3093
3094
3095
3096
3097
3098
3099
3100
3101
3102
3103
3104
3105
3106
3107
3108
3109
3110
3111
3114
3118
3120
3121
3122
3126
3127
3130
3131
3132
3134
3135
3136
3137
3138
3139
3140
3141
3143
3144
3145
3146
3147
3148
3149
3150
3151
3152
3154
3155
3156
3157
3158
3159
3160
3161
3162
3163
3164
3165
3166
3167
3168
3169
3170
3171
3172
3173
3174
3175
3176
3177
3178
3179
3180
3181
3182
3183
3184
3185
3186
3187
3188
3189
3190
3191
3192
3194
3195
3196
3197
3200
3202
3203
3204
3205
3206
3207
3208
3209
3210
3211
3212
3213
3214
3215
3216
3217
3219
3220
3221
3222
3223
3224
3225
3226
3227
3228
3229
3230
3231
3232
3233
3234
3235
3236
3237
3238
3239
3240
3241
3242
3243
3244
3245
3246
3247
3248
3249
3250
3251
3252
3253
3254
3255
3256
3257
3258
3259
3260
3261
3262
3263
3264
3265
3266
3267
3268
3269
3270
3271
3273
3274
3275
3277
3278
3279
3280
3281
3282
3283
3285
3286
3287
3288
3289
3290
3291
3292
3293
3294
3295
3296
3297
3299
3300
3301
3302
3303
3304
3305
3306
3307
3308
3309
3310
3311
3312
3313
3314
3315
3316
3317
3318
3319
3321
3322
3323
3325
3326
3327
3328
3329
3330
3331
3332
3333
3334
3335
3336
3337
3338
3339
3340
3341
3342
3343
3344
3347
3348
3350
3352
3353
3356
3357
3358
3359
3360
3361
3362
3363
3364
3365
3366
3367
3368
3369
3370
3372
3373
3375
3376
3377
3378
3379
3380
3381
3382
3383
3384
3385
3386
3387
3388
3389
3390
3391
3392
3393
3394
3395
3396
3397
3398
3399
3400
3401
3402
3405
3406
3407
3408
3412
3413
3414
3415
3416
3417
3418
3419
3420
3421
3422
3423
3424
3425
3426
3427
3428
3429
3430
3431
3432
3433
3434
3435
3436
3437
3438
3439
3440
3441
3442
3443
3444
3445
3447
3448
3449
3450
3451
3452
3453
3456
3458
3459
3462
3463
3464
3466
3468
3469
3472
3474
3476
3479
3481
3482
3483
3484
3485
3488
3490
3492
3493
3494
3495
3496
3497
3498
3499
3500
3502
3503
3504
3505
3506
3507
3508
3509
3510
3511
3512
3513
3514
3515
3516
3517
3518
3520
3523
3524
3525
3526
3527
3528
3529
3530
3532
3534
3538
3540
3544
3545
3547
3548
3549
3550
3551
3552
3553
3554
3555
3556
3557
3558
3559
3560
3561
3562
3563
3564
3565
3566
3567
3568
3569
3570
3571
3572
3573
3574
3576
3577
3578
3579
3581
3582
3583
3587
3588
3591
3595
3597
3600
3601
3602
3605
3606
3607
3609
3614
3617
3618
3620
3621
3622
3623
3624
3625
3631
3632
3633
3635
3636
3637
3641
3642
3643
3644
3646
3647
3648
3649
3650
3651
3652
3653
3654
3655
3656
3657
3659
3660
3661
3662
3663
3665
3666
3667
3668
3670
3672
3674
3675
3676
3679
3680
3681
3682
3684
3686
3687
3688
3690
3691
3693
3696
3697
3700
3701
3702
3703
3704
3705
3706
3707
3708
3709
3710
3711
3712
3713
3716
3717
3718
3719
3720
3721
3722
3723
3724
3726
3728
3729
3730
3731
3732
3733
3734
3735
3736
3737
3740
3741
3743
3744
3745
3746
3748
3749
3750
3751
3752
3754
3755
3756
3757
3758
3759
3762
3763
3764
3766
3767
3769
3770
3771
3775
3776
3777
3778
3779
3780
3781
3782
3784
3785
3786
3787
3788
3790
3791
3792
3794
3795
3796
3797
3798
3799
3800
3801
3802
3803
3804
3805
3806
3807
3808
3809
3810
3811
3812
3813
3814
3815
3816
3817
3818
3819
3820
3822
3823
3824
3825
3827
3828
3829
3831
3832
3833
3834
3835
3836
3837
3838
3839
3840
3841
3843
3844
3845
3846
3848
3849
3850
3851
3852
3853
3854
3855
3856
3857
3858
3859
3860
3861
3863
3865
3866
3867
3868
3869
3870
3871
3872
3876
3877
3878
3879
3882
3883
3884
3885
3886
3887
3888
3889
3890
3891
3893
3894
3895
3896
3898
3899
3900
3901
3903
3904
3905
3907
3908
3909
3910
3911
3912
3913
3914
3915
3916
3917
3918
3919
3920
3923
3924
3925
3927
3928
3932
3933
3934
3935
3936
3937
3938
3939
3940
3941
3942
3943
3944
3945
3946
3947
3948
3949
3950
3951
3952
3953
3954
3955
3956
3957
3958
3959
3961
3962
3963
3964
3967
3969
3970
3971
3972
3974
3975
3976
3977
3978
3979
3980
3981
3983
3985
3987
3988
3989
3990
3991
3992
3993
3994
3995
3996
3997
3998
4000
4001
4002
4003
4004
4005
4006
4008
4009
4010
4011
4013
4014
4015
4018
4020
4021
4022
4025
4026
4029
4030
4031
4033
4035
4036
4038
4039
4040
4042
4043
4044
4045
4046
4048
4049
4051
4052
4053
4054
4055
4056
4058
4059
4060
4061
4062
4063
4064
4065
4067
4068
4072
4080
4084
4085
4086
4087
4088
4091
4092
4093
4094
4097
4098
4100
4101
4102
4105
4108
4110
4114
4115
4117
4118
4120
4121
4125
4126
4127
4128
4129
4130
4131
4132
4133
4134
4137
4138
4139
4140
4141
4143
4145
4146
4149
4152
4153
4154
4156
4158
4160
4163
4171
4172
4173
4176
4177
4181
4183
4185
4186
4188
4189
4191
4192
4194
4196
4197
4199
4202
4206
4207
4209
4210
4214
4215
4216
4217
4219
4220
4222
4223
4224
4225
4227
4228
4230
4231
4232
4233
4236
4237
4239
4240
4241
4243
4244
4245
4247
4248
4249
4250
4251
4252
4253
4254
4255
4256
4257
4258
4259
4260
4261
4262
4264
4265
4266
4267
4268
4269
4270
4273
4277
4278
4284
4286
4288
4289
4290
4292
4293
4294
4295
4296
4297
4298
4299
4300
4301
4302
4303
4305
4306
4307
4308
4309
4310
4313
4314
4317
4318
4319
4323
4324
4326
4328
4329
4330
4331
4332
4333
4334
4335
4336
4338
4340
4343
4344
4345
4346
4347
4348
4349
4350
4351
4352
4353
4354
4355
4356
4357
4358
4359
4360
4361
4362
4363
4364
4365
4366
4367
4368
4369
4370
4371
4374
4375
4376
4377
4378
4379
4380
4381
4382
4383
4384
4389
4390
4393
4394
4395
4397
4398
4399
4400
4401
4402
4403
4404
4405
4406
4407
4408
4409
4410
4411
4412
4413
4414
4415
4418
4419
4420
4421
4422
4426
4428
4430
4431
4433
4434
4435
4436
4440
4441
4442
4443
4445
4446
4448
4450
4451
4452
4454
4455
4456
4457
4458
4463
4464
4467
4468
4469
4470
4472
4473
4474
4475
4476
4477
4478
4479
4481
4483
4484
4486
4487
4488
4489
4490
4491
4492
4493
4494
4495
4496
4498
4499
4501
4502
4503
4504
4505
4506
4507
4508
4509
4510
4512
4513
4514
4515
4516
4518
4520
4521
4522
4524
4525
4528
4529
4530
4531
4532
4534
4536
4537
4538
4540
4541
4542
4543
4544
4546
4547
4548
4550
4551
4552
4554
4555
4557
4558
4559
4560
4561
4562
4563
4564
4565
4567
4568
4569
4570
4571
4572
4573
4574
4575
4576
4577
4579
4580
4581
4582
4583
4585
4586
4593
4594
4595
4596
4597
4598
4600
4601
4602
4604
4605
4606
4607
4608
4609
4610
4611
4613
4614
4615
4616
4617
4618
4619
4620
4621
4622
4623
4624
4625
4626
4627
4628
4629
4630
4632
4633
4634
4635
4636
4637
4638
4639
4640
4641
4642
4643
4644
4645
4646
4647
4648
4649
4650
4651
4652
4653
4654
4655
4656
4657
4659
4660
4661
4662
4663
4664
4665
4666
4667
4668
4669
4670
4671
4672
4673
4674
4675
4676
4677
4678
4679
4680
4681
4682
4683
4684
4685
4686
4687
4688
4689
4690
4691
4692
4693
4694
4695
4696
4697
4698
4699
4700
4701
4702
4704
4705
4706
4707
4709
4710
4711
4712
4714
4715
4716
4717
4718
4719
4720
4721
4722
4723
4724
4725
4726
4727
4728
4729
4730
4732
4733
4734
4735
4736
4737
4738
4739
4740
4741
4742
4743
4744
4745
4746
4747
4748
4749
4750
4751
4752
4753
4754
4755
4756
4757
4758
4761
4762
4763
4764
4765
4766
4767
4770
4772
4773
4774
4775
4776
4777
4778
4779
4780
4781
4782
4783
4785
4787
4789
4790
4791
4793
4794
4795
4796
4797
4798
4799
4801
4802
4803
4804
4805
4807
4808
4809
4810
4811
4812
4813
4814
4815
4816
4817
4820
4821
4825
4829
4831
4833
4834
4836
4837
4838
4839
4841
4844
4845
4847
4849
4852
4853
4854
4855
4856
4857
4858
4859
4860
4861
4862
4863
4864
4865
4866
4867
4868
4869
4870
4871
4872
4873
4874
4875
4876
4877
4878
4879
4880
4881
4882
4883
4884
4885
4886
4888
4889
4890
4891
4892
4893
4894
4897
4898
4901
4902
4903
4904
4905
4906
4907
4908
4909
4910
4911
4912
4913
4914
4916
4918
4919
4920
4921
4922
4923
4924
4925
4926
4927
4928
4929
4930
4931
4932
4933
4934
4935
4936
4937
4938
4939
4940
4941
4942
4943
4944
4945
4946
4947
4948
4950
4951
4952
4953
4954
4955
4956
4957
4958
4959
4960
4961
4962
4963
4964
4965
4966
4967
4968
4969
4970
4971
4972
4973
4974
4975
4976
4977
4978
4979
4980
4981
4982
4983
4984
4985
4986
4987
4988
4989
4990
4991
4992
4993
4994
4995
4996
4997
4999
5000
5001
5003
5004
5005
5006
5007
5008
5010
5011
5012
5013
5014
5015
5016
5018
5019
5020
5021
5023
5024
5026
5029
5030
5031
5032
5033
5034
5035
5036
5037
5038
5039
5040
5041
5042
5043
5044
5045
5046
5047
5048
5049
5050
5051
5052
5053
5054
5055
5056
5057
5058
5059
5061
5062
5063
5064
5065
5066
5068
5069
5070
5071
5073
5074
5075
5076
5077
5078
5079
5080
5081
5082
5083
5084
5085
5086
5087
5088
5089
5090
5091
5092
5093
5094
5095
5096
5097
5098
5099
5100
5101
5102
5105
5106
5107
5108
5109
5110
5111
5112
5113
5114
5117
5118
5119
5120
5121
5122
5123
5124
5125
5126
5127
5128
5129
5130
5131
5132
5133
5134
5135
5136
5137
5138
5139
5140
5141
5142
5143
5144
5145
5146
5147
5148
5149
5150
5153
5154
5156
5157
5158
5159
5161
5162
5163
5165
5166
5167
5168
5169
5170
5172
5173
5174
5175
5176
5177
5178
5179
5180
5181
5182
5183
5184
5185
5186
5187
5188
5189
5190
5191
5192
5193
5194
5195
5196
5197
5198
5199
5201
5202
5203
5204
5205
5206
5207
5209
5210
5211
5212
5213
5214
5215
5216
5217
5218
5219
5220
5223
5224
5225
5227
5228
5229
5230
5231
5232
5233
5235
5237
5238
5240
5241
5245
5246
5247
5248
5249
5250
5251
5252
5253
5254
5255
5256
5257
5258
5259
5260
5261
5262
5263
5264
5265
5267
5268
5269
5271
5273
5275
5276
5277
5278
5279
5280
5281
5282
5283
5284
5285
5287
5288
5290
5291
5292
5293
5294
5295
5296
5297
5299
5301
5302
5303
5304
5306
5307
5308
5310
5312
5313
5314
5315
5316
5318
5319
5320
5321
5322
5323
5324
5325
5326
5327
5328
5329
5330
5331
5332
5333
5334
5335
5336
5337
5338
5339
5341
5342
5343
5344
5346
5347
5348
5349
5350
5351
5352
5353
5354
5356
5357
5358
5359
5360
5361
5362
5363
5364
5365
5366
5367
5368
5369
5370
5371
5372
5373
5374
5375
5376
5378
5379
5382
5383
5384
5385
5386
5387
5388
5389
5390
5391
5392
5393
5394
5395
5396
5397
5398
5399
5400
5401
5402
5403
5404
5405
5406
5407
5408
5409
5410
5411
5412
5413
5414
5415
5416
5417
5418
5419
5420
5421
5423
5425
5426
5427
5428
5429
5430
5431
5432
5433
5434
5435
5436
5437
5438
5439
5440
5441
5442
5443
5444
5445
5446
5447
5448
5449
5450
5451
5452
5453
5454
5455
5456
5457
5458
5459
5460
5462
5463
5464
5465
5467
5468
5469
5470
5471
5472
5473
5474
5475
5476
5477
5478
5479
5480
5482
5483
5485
5486
5487
5490
5492
5493
5495
5496
5497
5498
5499
5500
5501
5502
5503
5504
5505
5506
5507
5508
5509
5510
5511
5512
5513
5514
5515
5516
5517
5518
5519
5520
5521
5522
5523
5524
5525
5526
5527
5528
5529
5530
5531
5533
5535
5536
5537
5539
5540
5541
5542
5543
5544
5545
5548
5549
5551
5552
5553
5554
5555
5556
5557
5558
5559
5560
5561
5562
5563
5564
5565
5566
5567
5568
5569
5570
5572
5573
5574
5575
5576
5577
5578
5579
5580
5582
5583
5584
5585
5586
5587
5588
5589
5590
5591
5593
5594
5595
5596
5597
5599
5601
5602
5603
5604
5606
5607
5608
5609
5610
5612
5613
5614
5615
5616
5617
5618
5619
5620
5621
5622
5623
5624
5625
5626
5627
5628
5629
5630
5631
5632
5633
5634
5635
5636
5637
5638
5639
5640
5641
5642
5643
5644
5645
5646
5647
5648
5649
5650
5651
5652
5653
5654
5655
5656
5657
5658
5659
5660
5661
5662
5663
5664
5665
5666
5667
5668
5669
5670
5671
5672
5674
5675
5676
5677
5678
5679
5680
5681
5682
5683
5684
5685
5686
5687
5688
5689
5690
5691
5692
5693
5694
5695
5696
5698
5699
5700
5701
5704
5705
5706
5707
5710
5711
5713
5714
5716
5720
5721
5723
5725
5726
5727
5728
5729
5730
5731
5732
5733
5734
5735
5736
5737
5739
5740
5741
5742
5743
5744
5745
5746
5748
5750
5751
5752
5754
5756
5757
5758
5759
5761
5762
5763
5764
5765
5766
5767
5769
5770
5771
5772
5773
5774
5775
5776
5777
5778
5779
5780
5781
5782
5783
5784
5785
5786
5787
5788
5789
5790
5791
5792
5793
5794
5795
5796
5797
5798
5800
5801
5802
5803
5804
5805
5806
5809
5810
5811
5812
5813
5815
5818
5819
5820
5821
5822
5823
5824
5825
5827
5828
5829
5830
5832
5833
5834
5835
5836
5837
5838
5839
5840
5841
5842
5844
5846
5847
5848
5850
5851
5852
5853
5854
5856
5857
5858
5859
5862
5863
5865
5866
5867
5868
5869
5870
5871
5873
5875
5876
5879
5880
5881
5882
5883
5884
5886
5888
5889
5890
5891
5892
5893
5894
5895
5896
5897
5898
5899
5900
5901
5902
5903
5904
5905
5906
5907
5908
5909
5910
5911
5912
5913
5914
5916
5917
5918
5919
5923
5924
5925
5926
5927
5928
5929
5930
5931
5932
5933
5934
5935
5936
5937
5938
5942
5943
5944
5945
5947
5948
5949
5950
5951
5952
5954
5955
5956
5957
5958
5960
5961
5963
5964
5965
5966
5967
5970
5971
5973
5974
5975
5976
5977
5978
5980
5981
5983
5984
5985
5986
5987
5988
5989
5990
5991
5992
5993
5994
5996
5997
5998
5999
6000
6002
6003
6004
6005
6006
6007
6008
6009
6010
6012
6013
6014
6015
6016
6017
6018
6019
6020
6021
6022
6023
6026
6027
6029
6030
6031
6034
6035
6036
6037
6040
6041
6042
6044
6045
6047
6048
6049
6050
6051
6052
6053
6054
6055
6056
6059
6060
6061
6062
6063
6064
6067
6068
6069
6070
6072
6074
6076
6077
6078
6081
6082
6083
6084
6085
6086
6087
6088
6089
6090
6091
6100
6101
6102
6104
6105
6106
6109
6111
6114
6116
6117
6119
6120
6121
6122
6123
6124
6125
6126
6127
6128
6129
6130
6131
6132
6133
6134
6135
6137
6138
6139
6140
6147
6148
6149
6150
6153
6155
6157
6158
6159
6161
6163
6165
6166
6167
6169
6170
6171
6172
6173
6174
6175
6177
6179
6182
6183
6188
6189
6190
6193
6196
6197
6199
6205
6206
6207
6208
6209
6210
6211
6212
6213
6218
6219
6220
6222
6223
6224
6225
6226
6229
6231
6234
6235
6236
6239
6240
6243
6245
6246
6248
6249
6250
6251
6252
6253
6254
6255
6256
6257
6258
6259
6260
6261
6263
6264
6265
6266
6267
6269
6271
6272
6273
6274
6275
6276
6277
6278
6280
6281
6282
6283
6284
6285
6286
6287
6288
6289
6291
6292
6293
6294
6295
6296
6297
6299
6300
6301
6302
6303
6304
6305
6306
6307
6308
6309
6310
6311
6312
6313
6314
6315
6317
6318
6319
6320
6321
6322
6323
6324
6325
6326
6327
6328
6330
6331
6332
6334
6335
6336
6337
6338
6339
6340
6341
6342
6343
6344
6345
6347
6348
6349
6350
6351
6352
6353
6354
6356
6357
6358
6359
6360
6361
6363
6364
6365
6366
6367
6368
6370
6371
6372
6373
6374
6376
6377
6378
6379
6380
6381
6382
6383
6384
6385
6387
6388
6389
6391
6392
6393
6394
6395
6396
6397
6398
6399
6400
6401
6402
6404
6405
6406
6407
6408
6409
6410
6411
6412
6413
6414
6415
6416
6417
6418
6419
6420
6421
6422
6423
6424
6425
6426
6427
6428
6429
6430
6431
6432
6433
6434
6435
6436
6437
6438
6439
6440
6441
6442
6443
6444
6446
6447
6448
6449
6450
6451
6453
6454
6455
6456
6457
6458
6459
6460
6462
6463
6464
6466
6467
6468
6469
6471
6472
6473
6474
6475
6476
6478
6479
6480
6481
6482
6483
6484
6486
6487
6488
6489
6490
6491
6492
6494
6495
6496
6497
6498
6499
6500
6501
6502
6503
6505
6506
6507
6508
6509
6510
6511
6512
6513
6514
6515
6516
6517
6518
6519
6520
6521
6522
6523
6524
6525
6527
6529
6530
6531
6532
6536
6537
6538
6539
6540
6541
6544
6545
6546
6547
6548
6549
6550
6552
6553
6554
6555
6556
6557
6559
6560
6561
6562
6564
6565
6566
6567
6568
6569
6570
6571
6572
6573
6574
6575
6576
6577
6578
6579
6580
6581
6582
6583
6584
6585
6586
6587
6588
6590
6591
6592
6593
6594
6595
6596
6597
6598
6599
6600
6602
6603
6604
6606
6607
6608
6609
6610
6611
6612
6613
6614
6615
6616
6617
6618
6619
6620
6621
6622
6623
6624
6625
6626
6628
6629
6630
6631
6632
6633
6635
6636
6639
6641
6642
6643
6644
6645
6647
6648
6649
6651
6652
6653
6654
6655
6656
6657
6658
6659
6660
6661
6662
6663
6664
6665
6666
6667
6668
6670
6671
6672
6673
6674
6675
6676
6677
6678
6679
6680
6681
6682
6683
6684
6685
6687
6688
6689
6690
6691
6692
6693
6694
6696
6698
6699
6700
6701
6703
6704
6705
6706
6707
6710
6711
6712
6715
6716
6719
6720
6722
6723
6724
6725
6728
6729
6730
6731
6732
6733
6735
6736
6737
6738
6739
6740
6741
6743
6744
6745
6746
6747
6748
6749
6753
6754
6755
6756
6757
6758
6761
6762
6763
6764
6765
6766
6767
6769
6770
6771
6772
6773
6775
6776
6777
6778
6779
6780
6781
6782
6783
6786
6788
6791
6793
6794
6795
6797
6799
6801
6802
6803
6806
6808
6809
6810
6811
6812
6813
6814
6815
6816
6817
6818
6819
6820
6821
6822
6823
6824
6825
6826
6827
6828
6829
6830
6831
6832
6833
6834
6835
6836
6837
6838
6839
6841
6842
6843
6844
6845
6846
6847
6848
6849
6850
6852
6854
6855
6856
6859
6861
6862
6863
6865
6866
6867
6868
6869
6871
6872
6873
6874
6875
6876
6877
6878
6879
6882
6883
6884
6885
6887
6888
6889
6890
6891
6892
6893
6894
6895
6896
6897
6898
6899
6900
6901
6902
6903
6904
6905
6906
6907
6908
6910
6911
6912
6913
6914
6915
6916
6917
6918
6919
6920
6921
6922
6923
6926
6928
6929
6930
6931
6933
6934
6935
6936
6937
6938
6939
6940
6941
6942
6943
6944
6945
6946
6947
6948
6949
6950
6951
6952
6953
6954
6955
6956
6957
6958
6959
6960
6961
6962
6963
6964
6965
6967
6968
6969
6971
6972
6973
6974
6975
6977
6978
6979
6980
6981
6982
6983
6984
6985
6986
6989
6991
6992
6993
6994
6995
6996
6997
6998
6999
7000
7001
7002
7004
7005
7006
7007
7008
7009
7010
7011
7013
7014
7015
7016
7018
7019
7022
7023
7024
7025
7026
7027
7028
7029
7030
7031
7032
7033
7034
7035
7036
7037
7038
7039
7040
7041
7042
7043
7044
7045
7046
7047
7048
7049
7050
7051
7052
7053
7054
7055
7056
7057
7058
7060
7061
7062
7064
7065
7066
7067
7069
7073
7075
7076
7077
7078
7080
7081
7083
7084
7086
7087
7088
7089
7091
7094
7095
7097
7098
7099
7101
7102
7103
7105
7107
7110
7111
7112
7114
7115
7116
7118
7119
7120
7121
7122
7123
7124
7125
7126
7127
7128
7129
7130
7131
7132
7133
7134
7135
7136
7137
7138
7139
7140
7141
7142
7143
7144
7145
7146
7147
7149
7150
7151
7152
7153
7154
7155
7156
7157
7158
7159
7160
7161
7163
7164
7165
7166
7167
7168
7169
7170
7171
7172
7173
7174
7175
7176
7177
7178
7179
7180
7181
7183
7184
7185
7186
7187
7188
7189
7191
7192
7193
7194
7195
7196
7198
7199
7200
7201
7203
7204
7205
7206
7207
7208
7209
7210
7211
7212
7213
7214
7215
7216
7218
7219
7220
7222
7223
7224
7225
7227
7228
7229
7230
7231
7232
7233
7234
7235
7236
7237
7238
7239
7240
7241
7242
7243
7244
7245
7246
7248
7249
7250
7251
7252
7253
7254
7255
7256
7257
7258
7260
7261
7262
7263
7264
7265
7267
7268
7269
7270
7271
7272
7273
7274
7275
7276
7277
7279
7280
7281
7282
7283
7284
7285
7286
7287
7288
7289
7290
7292
7293
7294
7296
7297
7298
7299
7301
7302
7303
7304
7306
7307
7309
7310
7311
7313
7314
7315
7316
7317
7318
7319
7320
7321
7322
7323
7324
7325
7326
7327
7328
7329
7330
7331
7332
7333
7334
7335
7336
7337
7338
7339
7340
7341
7342
7343
7344
7345
7346
7347
7348
7349
7350
7351
7352
7353
7354
7355
7356
7357
7359
7361
7362
7367
7369
7371
7373
7374
7376
7377
7378
7380
7381
7382
7383
7384
7385
7386
7387
7389
7391
7392
7395
7396
7397
7398
7399
7400
7402
7403
7404
7405
7406
7407
7409
7410
7413
7414
7415
7417
7418
7419
7420
7421
7422
7423
7424
7425
7426
7427
7428
7429
7430
7431
7433
7434
7435
7436
7437
7438
7439
7440
7441
7442
7443
7444
7445
7447
7448
7449
7450
7451
7452
7453
7454
7455
7456
7457
7458
7459
7460
7461
7463
7464
7465
7466
7467
7468
7469
7470
7471
7472
7474
7475
7476
7477
7478
7481
7482
7483
7484
7485
7487
7488
7489
7491
7492
7493
7494
7495
7496
7497
7498
7499
7500
7502
7503
7504
7505
7506
7507
7508
7509
7510
7511
7513
7514
7515
7516
7519
7520
7522
7523
7524
7526
7527
7528
7530
7531
7532
7533
7534
7535
7537
7538
7539
7540
7541
7542
7543
7544
7545
7546
7547
7548
7549
7550
7551
7552
7554
7555
7556
7557
7558
7559
7560
7562
7563
7564
7565
7566
7567
7568
7571
7572
7574
7575
7576
7578
7579
7580
7581
7582
7583
7584
7585
7586
7587
7588
7589
7590
7591
7592
7593
7594
7595
7596
7597
7598
7599
7600
7601
7602
7603
7604
7605
7606
7607
7608
7609
7610
7611
7612
7614
7615
7616
7617
7618
7620
7621
7622
7623
7624
7625
7626
7628
7629
7631
7633
7635
7636
7637
7638
7639
7640
7641
7642
7643
7644
7646
7649
7651
7652
7653
7655
7657
7660
7661
7662
7663
7664
7665
7666
7668
7669
7671
7672
7673
7674
7675
7676
7677
7678
7679
7680
7681
7682
7683
7684
7686
7687
7688
7689
7690
7691
7692
7693
7696
7698
7701
7702
7703
7704
7705
7706
7707
7708
7709
7710
7711
7713
7714
7715
7716
7717
7718
7719
7720
7721
7722
7723
7724
7725
7726
7727
7728
7729
7730
7731
7732
7733
7734
7735
7736
7737
7738
7739
7740
7741
7742
7743
7744
7745
7746
7747
7749
7751
7754
7755
7756
7757
7758
7759
7760
7761
7762
7763
7764
7765
7766
7768
7769
7770
7771
7772
7774
7775
7777
7778
7782
7783
7784
7785
7786
7787
7788
7789
7790
7791
7792
7793
7794
7797
7798
7799
7800
7801
7802
7803
7804
7805
7806
7807
7808
7809
7810
7811
7812
7813
7814
7815
7817
7818
7819
7821
7822
7823
7824
7825
7826
7828
7829
7830
7832
7833
7834
7835
7836
7838
7839
7840
7841
7842
7843
7844
7846
7847
7848
7849
7850
7851
7852
7853
7854
7855
7856
7857
7858
7859
7860
7861
7862
7863
7864
7865
7866
7867
7868
7869
7870
7871
7872
7874
7875
7876
7878
7879
7880
7881
7882
7883
7884
7885
7886
7887
7888
7889
7890
7891
7892
7894
7895
7896
7897
7898
7899
7900
7901
7902
7903
7905
7906
7907
7908
7909
7910
7911
7912
7913
7914
7915
7917
7918
7919
7920
7921
7922
7923
7924
7925
7926
7927
7928
7929
7930
7931
7932
7933
7934
7935
7936
7937
7938
7939
7941
7942
7943
7944
7946
7947
7948
7949
7950
7951
7952
7953
7954
7955
7956
7957
7958
7959
7960
7961
7962
7963
7964
7965
7966
7967
7968
7969
7970
7971
7972
7975
7976
7977
7978
7979
7980
7981
7982
7983
7984
7985
7986
7987
7988
7989
7990
7991
7992
7993
7994
7995
7996
7997
7999
8000
8001
8002
8003
8004
8005
8006
8007
8008
8009
8010
8011
8012
8013
8014
8015
8016
8018
8019
8020
8021
8022
8023
8025
8026
8027
8028
8029
8030
8031
8032
8033
8034
8035
8036
8038
8039
8040
8041
8042
8043
8044
8045
8046
8047
8048
8049
8050
8051
8052
8053
8054
8055
8056
8057
8058
8059
8060
8061
8062
8063
8064
8065
8066
8067
8068
8069
8070
8071
8072
8073
8074
8075
8076
8077
8078
8079
8080
8081
8082
8083
8084
8085
8086
8087
8088
8089
8090
8091
8092
8093
8094
8095
8096
8097
8098
8099
8100
8101
8102
8103
8104
8105
8107
8108
8109
8110
8112
8114
8115
8116
8117
8118
8119
8120
8121
8122
8123
8124
8125
8126
8127
8129
8131
8132
8136
8137
8138
8139
8140
8141
8142
8143
8144
8145
8146
8147
8148
8149
8150
8151
8152
8153
8154
8155
8156
8157
8158
8159
8160
8161
8162
8163
8164
8165
8166
8169
8170
8171
8173
8175
8178
8182
8183
8185
8186
8187
8188
8189
8190
8191
8192
8193
8194
8195
8196
8197
8198
8199
8200
8201
8202
8203
8204
8205
8206
8207
8208
8209
8210
8211
8212
8213
8214
8215
8216
8217
8218
8219
8220
8221
8222
8223
8224
8225
8226
8227
8228
8229
8230
8231
8232
8233
8235
8236
8237
8239
8240
8241
8242
8243
8244
8245
8246
8247
8248
8249
8250
8251
8252
8253
8254
8255
8256
8257
8258
8259
8260
8261
8262
8263
8264
8265
8266
8267
8268
8269
8270
8271
8272
8273
8274
8275
8276
8277
8278
8279
8280
8281
8282
8283
8284
8285
8286
8287
8288
8289
8290
8291
8292
8293
8294
8295
8296
8297
8298
8299
8300
8301
8302
8304
8305
8306
8307
8308
8309
8310
8311
8312
8313
8314
8315
8316
8317
8318
8319
8320
8321
8322
8323
8324
8325
8326
8327
8328
8330
8331
8333
8334
8335
8336
8337
8338
8339
8340
8341
8343
8344
8345
8346
8347
8348
8349
8350
8352
8353
8354
8355
8356
8357
8358
8359
8360
8361
8362
8363
8364
8365
8366
8367
8368
8369
8370
8371
8372
8373
8374
8375
8376
8377
8378
8379
8380
8381
8382
8383
8384
8385
8386
8387
8388
8389
8390
8391
8392
8393
8394
8395
8396
8397
8398
8399
8400
8401
8402
8403
8404
8405
8406
8407
8408
8409
8410
8411
8412
8413
8414
8415
8416
8417
8418
8419
8421
8422
8423
8424
8425
8426
8427
8428
8429
8432
8433
8434
8435
8436
8437
8438
8440
8441
8442
8443
8444
8445
8446
8447
8448
8449
8450
8451
8453
8454
8455
8456
8457
8458
8459
8460
8461
8462
8463
8464
8465
8466
8467
8468
8469
8470
8471
8472
8473
8474
8475
8476
8477
8478
8479
8480
8481
8482
8491
8492
8493
8494
8495
8496
8497
8498
8499
8500
8502
8504
8505
8506
8507
8508
8509
8510
8511
8512
8513
8514
8515
8516
8518
8519
8520
8521
8522
8523
8524
8525
8526
8527
8528
8529
8530
8531
8532
8533
8534
8535
8536
8537
8538
8539
8540
8541
8542
8543
8544
8547
8548
8549
8550
8551
8553
8554
8555
8556
8557
8558
8559
8560
8561
8562
8563
8564
8565
8566
8567
8568
8569
8570
8571
8572
8573
8574
8575
8576
8577
8578
8579
8580
8581
8582
8583
8584
8585
8586
8587
8588
8590
8591
8592
8593
8594
8595
8596
8597
8598
8599
8600
8601
8603
8604
8605
8606
8607
8608
8609
8610
8611
8612
8613
8620
8621
8622
8623
8624
8625
8626
8627
8628
8629
8630
8631
8633
8634
8635
8636
8637
8638
8639
8640
8641
8642
8643
8644
8645
8646
8647
8648
8649
8650
8651
8652
8653
8654
8655
8656
8657
8658
8660
8662
8663
8664
8665
8666
8667
8668
8669
8670
8671
8672
8673
8674
8678
8679
8680
8681
8682
8683
8684
8686
8687
8688
8689
8690
8691
8692
8693
8696
8697
8699
8700
8701
8702
8703
8704
8705
8706
8707
8708
8709
8710
8711
8712
8713
8715
8716
8717
8718
8719
8720
8721
8722
8723
8724
8725
8728
8732
8733
8734
8735
8736
8737
8738
8739
8740
8741
8742
8743
8744
8745
8746
8748
8749
8750
8751
8752
8753
8754
8755
8756
8757
8758
8759
8760
8761
8762
8763
8764
8765
8766
8767
8768
8769
8770
8771
8772
8773
8774
8775
8776
8777
8778
8779
8780
8781
8782
8783
8785
8786
8788
8789
8790
8791
8792
8793
8794
8795
8796
8797
8798
8799
8800
8801
8802
8803
8805
8806
8807
8808
8809
8810
8811
8812
8813
8814
8815
8816
8817
8818
8819
8820
8821
8822
8823
8824
8825
8826
8827
8828
8829
8830
8831
8833
8834
8836
8837
8839
8840
8842
8845
8846
8847
8848
8849
8850
8851
8852
8853
8854
8856
8857
8858
8859
8860
8861
8862
8863
8864
8865
8866
8867
8868
8869
8870
8871
8877
8878
8879
8880
8882
8883
8884
8885
8886
8887
8889
8890
8891
8892
8894
8895
8896
8897
8898
8900
8901
8902
8903
8904
8905
8906
8907
8908
8909
8910
8911
8912
8913
8914
8915
8916
8917
8918
8919
8920
8921
8922
8923
8924
8925
8926
8927
8928
8929
8930
8931
8932
8933
8936
8937
8939
8940
8941
8942
8943
8944
8945
8946
8947
8948
8949
8950
8951
8952
8953
8954
8955
8956
8957
8958
8959
8960
8961
8962
8963
8964
8965
8966
8967
8968
8969
8971
8975
8976
8978
8979
8980
8981
8982
8984
8985
8986
8987
8988
8989
8990
8991
8992
8993
8994
8995
8996
8997
8998
8999
9000
9001
9002
9003
9004
9005
9006
9008
9009
9010
9011
9012
9013
9014
9015
9016
9018
9019
9020
9021
9022
9023
9024
9025
9026
9027
9028
9029
9030
9031
9032
9033
9034
9035
9036
9037
9038
9039
9040
9041
9042
9043
9044
9045
9046
9047
9048
9049
9050
9051
9052
9053
9054
9055
9056
9057
9058
9059
9060
9061
9062
9063
9064
9065
9066
9068
9069
9070
9071
9072
9073
9074
9075
9076
9077
9078
9079
9081
9082
9083
9084
9086
9087
9088
9089
9090
9091
9092
9093
9094
9096
9097
9098
9099
9100
9101
9102
9103
9104
9105
9106
9107
9108
9109
9110
9111
9112
9113
9114
9115
9116
9117
9118
9119
9121
9122
9123
9124
9125
9126
9127
9128
9129
9131
9132
9133
9134
9135
9136
9137
9138
9139
9140
9141
9142
9143
9144
9145
9146
9148
9149
9150
9151
9152
9153
9154
9155
9156
9157
9158
9159
9160
9161
9162
9163
9164
9165
9166
9167
9168
9169
9170
9171
9172
9173
9174
9176
9177
9178
9180
9184
9187
9188
9189
9190
9191
9192
9195
9198
9201
9202
9204
9205
9206
9207
9208
9209
9210
9211
9212
9214
9215
9216
9217
9218
9220
9221
9222
9223
9224
9225
9226
9227
9228
9229
9230
9231
9232
9233
9234
9236
9237
9238
9239
9240
9241
9242
9243
9244
9245
9246
9247
9248
9249
9250
9251
9252
9253
9254
9256
9257
9258
9259
9261
9262
9263
9264
9265
9266
9267
9268
9269
9270
9271
9272
9273
9274
9275
9276
9277
9278
9279
9280
9281
9282
9283
9284
9286
9287
9288
9289
9290
9291
9292
9293
9294
9295
9296
9297
9298
9299
9300
9301
9302
9303
9304
9305
9306
9307
9308
9310
9312
9313
9314
9315
9316
9317
9318
9319
9320
9321
9322
9323
9324
9325
9326
9328
9329
9330
9331
9332
9333
9336
9338
9339
9340
9341
9342
9343
9344
9345
9346
9347
9352
9353
9354
9356
9357
9360
9361
9362
9363
9365
9366
9367
9368
9369
9370
9371
9372
9373
9374
9375
9376
9377
9378
9379
9380
9381
9382
9383
9384
9385
9386
9387
9388
9390
9392
9394
9395
9396
9397
9398
9399
9400
9401
9402
9403
9404
9405
9406
9407
9408
9409
9410
9411
9412
9413
9414
9415
9416
9417
9418
9419
9420
9421
9422
9423
9424
9425
9426
9427
9428
9429
9430
9431
9432
9433
9435
9436
9441
9442
9443
9444
9445
9446
9448
9450
9451
9452
9453
9454
9455
9456
9458
9459
9461
9462
9463
9464
9465
9466
9467
9468
9469
9470
9471
9472
9473
9474
9476
9477
9478
9479
9480
9481
9482
9483
9486
9487
9488
9489
9490
9491
9492
9493
9494
9495
9496
9497
9500
9501
9502
9504
9505
9506
9507
9508
9509
9510
9511
9512
9513
9515
9516
9517
9518
9519
9520
9521
9522
9523
9524
9525
9526
9527
9529
9530
9531
9532
9533
9535
9536
9537
9538
9539
9540
9541
9542
9543
9544
9545
9546
9547
9548
9549
9550
9551
9552
9553
9554
9555
9556
9557
9558
9559
9560
9561
9562
9563
9564
9565
9566
9567
9568
9569
9570
9571
9572
9573
9574
9575
9576
9577
9578
9579
9580
9582
9583
9584
9585
9586
9587
9588
9589
9590
9591
9592
9593
9594
9595
9596
9597
9598
9603
9604
9605
9607
9609
9615
9616
9617
9618
9619
9620
9621
9622
9623
9624
9625
9626
9627
9628
9629
9630
9631
9632
9633
9634
9635
9636
9637
9642
9648
9649
9650
9651
9652
9653
9654
9655
9656
9657
9658
9659
9660
9661
9662
9663
9664
9665
9666
9667
9668
9669
9670
9671
9677
9678
9680
9681
9682
9683
9684
9685
9686
9687
9688
9689
9690
9691
9692
9693
9694
9695
9696
9697
9698
9703
9704
9705
9706
9707
9708
9709
9710
9711
9714
9715
9719
9720
9721
9722
9723
9724
9725
9726
9727
9728
9729
9730
9733
9734
9735
9736
9737
9738
9739
9740
9741
9742
9743
9744
9745
9746
9747
9748
9749
9750
9751
9752
9753
9754
9755
9756
9757
9758
9759
9760
9761
9762
9763
9764
9765
9766
9767
9768
9769
9772
9774
9780
9781
9782
9783
9784
9785
9786
9787
9789
9790
9791
9792
9793
9794
9795
9796
9797
9798
9799
9800
9801
9802
9803
9804
9805
9806
9807
9808
9809
9810
9811
9812
9813
9814
9815
9816
9817
9818
9819
9820
9821
9822
9823
9824
9825
9826
9827
9828
9829
9830
9831
9832
9833
9834
9835
9836
9837
9838
9839
9840
9841
9842
9843
9844
9845
9846
9847
9848
9849
9850
9851
9852
9853
9854
9855
9863
9867
9868
9870
9871
9872
9873
9874
9875
9876
9877
9878
9882
9887
9889
9890
9891
9892
9894
9895
9897
9898
9899
9900
9901
9902
9904
9905
9906
9907
9908
9909
9910
9911
9912
9913
9914
9915
9916
9917
9918
9919
9920
9921
9922
9923
9924
9925
9927
9928
9929
9930
9931
9932
9933
9934
9935
9936
9937
9938
9939
9940
9941
9942
9943
9944
9945
9946
9947
9948
9949
9950
9953
9954
9955
9956
9957
9958
9959
9960
9961
9962
9963
9964
9965
9966
9967
9968
9969
9970
9971
9972
9973
9975
9976
9977
9978
9979
9980
9981
9982
9983
9984
9985
9986
9989
9990
9991
9992
9993
9994
9995
9997
9999
10000
10001
10002
10003
10004
10005
10006
10007
10009
10010
10011
10012
10013
10014
10017
10018
10019
10020
10021
10022
10025
10026
10027
10028
10029
10030
10031
10032
10033
10034
10035
10036
10037
10038
10039
10041
10042
10043
10044
10052
10053
10054
10055
10056
10057
10058
10059
10060
10061
10062
10063
10064
10065
10066
10067
10068
10069
10070
10072
10073
10075
10076
10077
10078
10079
10080
10081
10082
10083
10084
10085
10086
10087
10088
10089
10090
10091
10092
10093
10094
10095
10096
10097
10098
10099
10100
10101
10102
10104
10106
10107
10108
10109
10110
10111
10112
10113
10114
10115
10116
10117
10118
10119
10120
10121
10122
10123
10124
10125
10126
10127
10128
10129
10130
10131
10132
10133
10135
10136
10137
10138
10139
10140
10141
10142
10143
10144
10145
10146
10147
10148
10149
10152
10153
10154
10155
10156
10157
10159
10161
10162
10164
10166
10167
10168
10169
10170
10171
10172
10173
10174
10175
10176
10177
10178
10179
10180
10181
10182
10185
10186
10187
10188
10189
10190
10194
10195
10196
10197
10198
10199
10200
10201
10202
10203
10204
10205
10206
10207
10211
10212
10213
10214
10215
10216
10220
10221
10222
10223
10224
10225
10226
10227
10228
10229
10230
10232
10233
10234
10235
10236
10237
10238
10239
10240
10241
10242
10243
10244
10245
10246
10247
10248
10249
10250
10251
10252
10253
10254
10255
10256
10257
10258
10259
10260
10261
10262
10263
10264
10265
10266
10267
10268
10269
10270
10271
10273
10274
10275
10276
10277
10278
10279
10280
10281
10282
10283
10284
10285
10287
10289
10290
10291
10292
10293
10294
10296
10297
10298
10299
10300
10301
10303
10305
10307
10308
10309
10311
10314
10316
10317
10319
10320
10321
10322
10323
10324
10325
10326
10327
10328
10329
10330
10331
10332
10333
10334
10335
10336
10337
10338
10339
10341
10342
10343
10344
10345
10346
10347
10348
10349
10352
10354
10355
10356
10357
10358
10359
10360
10361
10362
10363
10364
10365
10367
10369
10370
10371
10372
10373
10374
10375
10376
10377
10378
10379
10380
10381
10382
10383
10384
10387
10388
10389
10390
10391
10392
10393
10394
10395
10396
10397
10398
10399
10400
10401
10402
10403
10404
10405
10406
10407
10408
10409
10410
10411
10412
10413
10414
10415
10416
10417
10418
10419
10420
10421
10422
10423
10424
10425
10426
10427
10428
10431
10432
10433
10434
10438
10439
10440
10441
10442
10443
10444
10445
10446
10447
10448
10449
10450
10451
10452
10453
10454
10458
10459
10460
10462
10463
10464
10465
10466
10467
10468
10469
10470
10471
10474
10476
10478
10479
10480
10481
10482
10483
10484
10485
10486
10487
10488
10489
10490
10491
10492
10493
10494
10495
10496
10497
10498
10499
10500
10501
10505
10506
10507
10508
10511
10512
10513
10514
10515
10516
10517
10518
10519
10520
10521
10522
10523
10525
10526
10527
10528
10529
10530
10533
10536
10537
10538
10540
10541
10542
10543
10544
10545
10546
10547
10548
10549
10550
10552
10554
10556
10557
10558
10559
10560
10561
10562
10563
10564
10565
10566
10567
10568
10569
10570
10571
10572
10573
10574
10575
10576
10577
10578
10579
10580
10581
10582
10583
10584
10585
10586
10587
10588
10589
10590
10591
10595
10596
10597
10598
10600
10601
10602
10603
10604
10605
10606
10607
10608
10609
10610
10611
10612
10613
10615
10616
10617
10619
10621
10622
10624
10625
10626
10627
10628
10629
10630
10631
10632
10633
10634
10635
10636
10637
10638
10639
10640
10641
10642
10643
10644
10646
10647
10648
10651
10652
10653
10654
10655
10656
10657
10658
10659
10660
10661
10662
10663
10664
10665
10666
10667
10668
10669
10670
10671
10672
10673
10674
10675
10676
10677
10678
10679
10680
10681
10683
10685
10686
10687
10688
10690
10693
10694
10696
10697
10698
10700
10701
10708
10709
10710
10711
10712
10713
10714
10715
10716
10717
10718
10719
10720
10721
10722
10723
10724
10725
10726
10727
10728
10729
10730
10731
10739
10740
10743
10744
10745
10746
10747
10748
10749
10750
10751
10752
10753
10754
10755
10756
10757
10758
10759
10761
10762
10763
10764
10765
10766
10768
10769
10770
10771
10772
10773
10774
10775
10776
10777
10782
10783
10785
10787
10788
10789
10791
10792
10793
10794
10795
10796
10797
10798
10799
10800
10801
10802
10803
10804
10805
10806
10807
10808
10809
10810
10811
10812
10813
10814
10815
10816
10817
10818
10819
10820
10821
10822
10823
10824
10825
10826
10827
10829
10830
10831
10832
10833
10834
10835
10836
10837
10838
10839
10840
10841
10842
10844
10845
10846
10848
10849
10851
10852
10855
10856
10857
10858
10859
10861
10862
10863
10864
10865
10866
10867
10868
10870
10871
10872
10874
10875
10876
10877
10878
10879
10880
10881
10882
10883
10884
10885
10886
10887
10888
10889
10890
10891
10892
10893
10894
10895
10896
10897
10898
10899
10900
10901
10902
10903
10904
10906
10907
10908
10909
10910
10911
10912
10913
10914
10915
10916
10917
10918
10920
10921
10922
10923
10924
10925
10926
10927
10928
10929
10930
10931
10932
10933
10934
10935
10936
10937
10938
10939
10940
10941
10942
10943
10944
10945
10946
10947
10948
10949
10950
10951
10952
10953
10954
10955
10956
10957
10958
10959
10960
10961
10962
10963
10964
10965
10966
10967
10968
10969
10970
10972
10973
10974
10975
10976
10977
10978
10979
10980
10981
10982
10983
10984
10985
10986
10987
10988
10989
10990
10991
10992
10993
10994
10997
10998
10999
11000
11001
11002
11003
11004
11005
11006
11007
11008
11009
11010
11011
11012
11013
11014
11015
11016
11017
11018
11019
11023
11024
11025
11026
11027
11028
11030
11031
11032
11033
11034
11035
11036
11037
11038
11039
11040
11042
11043
11044
11045
11046
11047
11048
11050
11051
11052
11054
11055
11056
11057
11058
11059
11060
11061
11062
11063
11064
11065
11066
11067
11068
11069
11070
11071
11072
11073
11074
11075
11076
11077
11078
11079
11080
11081
11082
11083
11084
11085
11086
11087
11088
11089
11090
11091
11092
11093
11095
11096
11097
11098
11099
11100
11101
11102
11103
11104
11105
11106
11107
11108
11109
11115
11118
11119
11120
11121
11122
11123
11124
11125
11126
11127
11128
11129
11130
11131
11132
11133
11134
11136
11138
11140
11141
11142
11143
11144
11145
11146
11147
11148
11149
11150
11151
11152
11153
11154
11155
11156
11157
11158
11159
11160
11161
11162
11163
11164
11166
11167
11169
11170
11171
11172
11173
11174
11175
11176
11177
11178
11179
11180
11181
11182
11183
11184
11185
11187
11188
11189
11190
11191
11192
11193
11194
11195
11197
11198
11199
11200
11201
11202
11203
11207
11208
11209
11210
11211
11212
11213
11214
11215
11216
11217
11218
11219
11220
11221
11222
11223
11224
11225
11226
11227
11228
11229
11230
11231
11232
11233
11234
11235
11236
11237
11238
11239
11240
11241
11242
11243
11244
11245
11248
11249
11250
11251
11252
11253
11254
11255
11256
11257
11258
11259
11260
11261
11262
11263
11264
11265
11266
11267
11268
11269
11270
11271
11272
11273
11274
11275
11277
11278
11279
11280
11281
11282
11283
11284
11285
11286
11287
11290
11291
11293
11294
11295
11296
11297
11298
11299
11300
11301
11302
11303
11304
11305
11306
11307
11308
11309
11310
11311
11312
11313
11314
11315
11316
11317
11318
11319
11320
11321
11322
11324
11325
11326
11327
11328
11330
11331
11332
11333
11334
11335
11336
11337
11338
11339
11340
11341
11342
11343
11344
11345
11346
11347
11348
11349
11350
11351
11352
11353
11354
11355
11356
11357
11358
11360
11361
11362
11363
11364
11365
11369
11373
11374
11375
11376
11377
11378
11379
11380
11381
11382
11384
11385
11386
11388
11389
11391
11392
11393
11394
11395
11396
11397
11398
11399
11400
11401
11402
11403
11404
11405
11406
11408
11409
11410
11411
11413
11417
11422
11423
11424
11425
11426
11427
11428
11429
11430
11431
11432
11433
11434
11435
11436
11437
11439
11441
11442
11443
11444
11445
11446
11447
11448
11449
11450
11451
11452
11453
11454
11455
11456
11457
11458
11459
11460
11461
11462
11463
11464
11465
11466
11467
11468
11469
11470
11471
11472
11473
11474
11475
11476
11477
11478
11479
11480
11481
11482
11483
11484
11485
11487
11488
11489
11490
11491
11492
11493
11494
11495
11496
11497
11498
11499
11500
11501
11502
11503
11504
11505
11506
11507
11508
11509
11510
11511
11512
11513
11514
11515
11516
11517
11518
11519
11520
11521
11528
11529
11530
11531
11532
11533
11534
11535
11536
11537
11538
11539
11540
11541
11542
11543
11544
11547
11548
11549
11550
11551
11553
11554
11555
11556
11557
11558
11559
11560
11561
11562
11563
11564
11565
11566
11567
11568
11569
11570
11571
11572
11573
11574
11575
11576
11577
11578
11579
11580
11581
11582
11583
11584
11585
11586
11587
11588
11593
11594
11597
11598
11599
11600
11603
11605
11606
11607
11608
11609
11610
11611
11612
11613
11614
11615
11616
11617
11618
11619
11620
11621
11622
11623
11624
11625
11626
11627
11628
11630
11631
11633
11634
11635
11636
11637
11638
11639
11641
11642
11643
11644
11645
11646
11647
11648
11649
11650
11655
11656
11657
11660
11661
11662
11663
11664
11666
11667
11668
11669
11670
11671
11672
11673
11674
11675
11676
11678
11680
11682
11683
11684
11685
11686
11687
11688
11689
11690
11691
11692
11693
11694
11695
11696
11697
11698
11699
11700
11701
11702
11703
11704
11705
11706
11707
11708
11709
11710
11712
11716
11717
11720
11721
11722
11723
11724
11725
11726
11727
11728
11729
11730
11731
11733
11734
11735
11736
11737
11738
11739
11740
11741
11742
11743
11744
11745
11746
11747
11748
11749
11750
11751
11752
11753
11754
11755
11756
11757
11758
11759
11760
11764
11765
11766
11767
11768
11769
11770
11771
11772
11774
11775
11776
11777
11778
11779
11780
11781
11784
11785
11786
11787
11788
11789
11790
11791
11792
11793
11794
11795
11796
11797
11798
11802
11804
11806
11807
11808
11809
11810
11813
11814
11815
11816
11817
11818
11819
11820
11821
11822
11823
11824
11825
11826
11827
11828
11829
11830
11831
11832
11833
11834
11835
11836
11837
11838
11839
11840
11841
11842
11843
11844
11845
11846
11847
11848
11849
11850
11851
11852
11853
11854
11855
11856
11857
11858
11859
11860
11861
11862
11863
11864
11865
11866
11867
11868
11869
11870
11871
11872
11873
11874
11875
11876
11878
11881
11882
11883
11884
11885
11886
11888
11889
11890
11891
11892
11893
11894
11895
11896
11897
11898
11899
11900
11901
11902
11903
11904
11905
11906
11907
11908
11909
11910
11911
11912
11913
11914
11915
11916
11917
11918
11919
11920
11921
11922
11923
11924
11925
11926
11927
11928
11929
11930
11931
11932
11933
11934
11935
11937
11938
11939
11940
11941
11942
11947
11948
11949
11950
11951
11952
11953
11954
11955
11956
11957
11958
11959
11960
11968
11969
11970
11971
11972
11973
11974
11975
11976
11977
11978
11979
11980
11981
11982
11983
11984
11985
11986
11987
11988
11989
11990
11991
11992
11993
11994
11995
11996
11997
11998
11999
12000
12001
12002
12003
12004
12005
12006
12007
12008
12010
12011
12012
12014
12015
12016
12017
12018
12019
12020
12021
12022
12023
12024
12025
12026
12027
12028
12029
12031
12032
12033
12034
12035
12036
12037
12038
12039
12046
12047
12048
12049
12050
12051
12054
12057
12058
12059
12060
12061
12062
12063
12064
12065
12066
12067
12068
12069
12070
12071
12072
12073
12074
12075
12076
12077
12078
12079
12080
12081
12082
12083
12084
12085
12086
12087
12088
12089
12090
12091
12092
12093
12094
12095
12096
12097
12098
12099
12100
12101
12103
12105
12106
12109
12110
12111
12112
12113
12114
12116
12117
12120
12121
12129
12130
12131
12132
12133
12134
12135
12136
12141
12142
12143
12144
12145
12146
12147
12148
12149
12154
12156
12157
12158
12159
12160
12161
12162
12163
12164
12165
12166
12167
12168
12169
12172
12173
12180
12181
12182
12183
12184
12185
12186
12187
12188
12189
12190
12191
12192
12193
12194
12195
12197
12198
12199
12200
12201
12202
12203
12204
12205
12206
12207
12208
12209
12210
12211
12223
12224
12225
12226
12228
12229
12230
12231
12232
12233
12234
12235
12236
12237
12244
12245
12246
12247
12248
12249
12250
12251
12252
12253
12254
12256
12257
12259
12261
12262
12263
12269
12275
12276
12277
12278
12282
12283
12284
12285
12286
12287
12292
12293
12294
12295
12296
12297
12298
12299
12300
12301
12302
12303
12304
12305
12306
12307
12309
12310
12312
12314
12315
12316
12317
12318
12319
12323
12324
12325
12326
12327
12328
12329
12330
12331
12332
12333
12334
12335
12336
12337
12338
12339
12340
12341
12342
12343
12344
12345
12346
12347
12348
12350
12351
12354
12356
12357
12358
12359
12360
12361
12362
12363
12364
12365
12366
12367
12368
12369
12370
12371
12376
12377
12378
12379
12380
12381
12382
12383
12384
12385
12386
12387
12388
12389
12390
12391
12392
12393
12394
12396
12397
12398
12399
12400
12401
12402
12403
12404
12410
12411
12412
12413
12414
12415
12416
12417
12418
12419
12420
12421
12422
12423
12424
12425
12426
12427
12428
12429
12430
12431
12432
12433
12434
12435
12436
12437
12438
12441
12443
12444
12445
12446
12447
12448
12449
12450
12451
12452
12453
12454
12455
12456
12457
12458
12459
12460
12461
12462
12463
12464
12465
12467
12468
12469
12470
12471
12473
12475
12478
12479
12481
12482
12483
12484
12485
12486
12487
12488
12489
12490
12492
12493
12494
12495
12497
12500
12501
12502
12503
12504
12505
12506
12507
12508
12509
12510
12511
12512
12513
12514
12515
12516
12517
12518
12519
12520
12521
12522
12523
12524
12525
12528
12530
12531
12534
12536
12537
12538
12539
12540
12541
12542
12543
12544
12545
12546
12547
12548
12549
12550
12551
12552
12553
12554
12556
12557
12558
12559
12560
12561
12562
12563
12564
12565
12566
12567
12569
12570
12571
12572
12573
12574
12575
12576
12577
12578
12579
12580
12581
12582
12583
12585
12586
12587
12588
12589
12590
12591
12592
12593
12594
12596
12597
12598
12599
12600
12601
12603
12605
12606
12607
12608
12609
12610
12611
12612
12613
12614
12615
12616
12618
12619
12620
12621
12622
12623
12624
12625
12626
12628
12630
12631
12632
12633
12634
12635
12636
12637
12638
12639
12641
12642
12644
12646
12647
12648
12651
12652
12653
12654
12655
12656
12657
12658
12659
12661
12662
12665
12666
12668
12669
12670
12671
12672
12673
12674
12675
12676
12677
12678
12679
12680
12681
12683
12684
12685
12686
12687
12688
12689
12690
12691
12692
12693
12694
12696
12697
12698
12699
12701
12702
12703
12704
12705
12711
12715
12716
12717
12718
12719
12720
12721
12722
12723
12724
12725
12727
12728
12729
*Elset, elset=ss
1
2
3
4
9
11
12
13
14
15
16
21
22
23
29
30
31
33
35
53
54
56
57
58
59
66
67
69
70
71
72
75
81
82
83
84
85
87
89
90
100
101
102
104
105
108
109
110
111
112
117
118
119
120
121
122
124
125
127
128
129
131
133
134
135
137
145
147
148
149
155
156
163
164
167
168
169
170
171
173
176
177
181
191
193
195
196
197
198
199
200
202
203
205
207
208
211
212
213
214
215
221
229
237
238
239
240
241
242
243
245
251
253
254
255
257
263
264
265
267
268
269
287
288
291
295
298
300
301
302
303
309
310
321
337
338
340
341
342
344
346
347
348
349
350
351
352
353
356
357
359
360
361
362
364
365
370
373
374
375
382
383
394
395
396
397
398
402
404
405
406
407
409
410
411
412
413
414
415
416
418
419
421
423
424
426
427
429
431
436
437
439
440
441
444
445
447
448
452
453
455
456
461
463
467
469
470
471
472
473
477
478
480
481
482
483
485
486
489
492
493
494
506
511
513
514
533
534
536
537
538
540
542
543
544
545
548
550
551
552
553
554
563
564
568
573
575
589
590
591
592
598
609
611
613
614
615
616
617
618
619
620
622
624
626
627
628
639
640
641
642
643
644
645
647
651
652
659
664
665
667
676
677
684
690
691
693
695
696
698
700
701
702
703
704
712
713
714
718
720
721
722
723
732
735
736
737
738
745
746
747
749
750
751
759
763
789
790
791
792
795
796
797
798
799
800
801
802
803
804
805
808
809
811
815
818
821
822
823
825
826
837
841
842
843
844
845
846
847
848
851
852
853
854
857
859
860
861
862
863
868
885
889
890
896
897
907
914
916
919
920
922
923
932
933
934
935
938
948
949
950
951
952
953
954
955
956
958
959
961
963
964
965
966
967
969
970
973
977
978
982
987
989
1007
1008
1022
1025
1036
1039
1040
1042
1043
1044
1046
1048
1049
1051
1066
1067
1069
1074
1077
1078
1086
1088
1089
1091
1092
1093
1094
1095
1096
1097
1098
1099
1100
1101
1119
1120
1121
1123
1125
1126
1133
1135
1136
1137
1139
1163
1165
1166
1168
1169
1170
1172
1173
1176
1177
1178
1179
1181
1182
1199
1200
1201
1202
1203
1205
1207
1209
1212
1213
1218
1223
1228
1230
1231
1232
1236
1237
1238
1239
1240
1243
1244
1246
1247
1248
1249
1251
1252
1253
1254
1255
1256
1259
1260
1262
1264
1265
1266
1267
1269
1270
1271
1272
1274
1276
1282
1283
1284
1286
1316
1319
1331
1335
1348
1350
1351
1352
1353
1361
1379
1380
1381
1382
1383
1384
1385
1390
1397
1404
1408
1410
1411
1412
1418
1420
1421
1422
1424
1425
1426
1428
1429
1430
1434
1437
1438
1440
1441
1443
1444
1447
1448
1450
1453
1454
1455
1459
1460
1466
1469
1470
1471
1475
1476
1499
1501
1510
1511
1512
1513
1514
1515
1517
1518
1520
1521
1522
1523
1524
1525
1527
1563
1571
1573
1577
1583
1586
1588
1589
1591
1592
1597
1598
1599
1600
1601
1610
1612
1621
1629
1634
1637
1639
1645
1646
1650
1652
1655
1658
1660
1665
1669
1673
1675
1676
1677
1678
1683
1684
1685
1686
1691
1692
1693
1698
1699
1702
1703
1704
1705
1706
1708
1711
1712
1713
1715
1740
1749
1751
1757
1764
1789
1790
1791
1799
1800
1812
1813
1817
1818
1820
1824
1826
1827
1845
1846
1849
1855
1859
1865
1867
1869
1870
1887
1894
1896
1904
1907
1909
1911
1925
1926
1930
1931
1933
1934
1935
1940
1942
1944
1949
1956
1970
1984
1985
1988
1990
1991
1997
2002
2015
2018
2019
2021
2022
2023
2031
2034
2035
2036
2037
2039
2041
2042
2043
2050
2070
2071
2074
2084
2117
2119
2120
2122
2127
2148
2158
2159
2161
2174
2177
2179
2182
2185
2191
2193
2194
2195
2196
2197
2198
2199
2207
2215
2224
2247
2248
2250
2251
2254
2255
2257
2258
2259
2262
2263
2264
2265
2266
2267
2268
2269
2270
2272
2273
2274
2276
2277
2279
2281
2282
2283
2289
2294
2299
2302
2311
2312
2330
2333
2334
2335
2336
2337
2339
2361
2372
2391
2393
2412
2414
2415
2416
2417
2437
2445
2448
2452
2456
2463
2485
2486
2499
2500
2502
2504
2508
2518
2519
2538
2539
2540
2541
2542
2543
2550
2553
2556
2559
2560
2569
2572
2588
2609
2621
2635
2649
2660
2664
2665
2667
2670
2671
2672
2674
2676
2677
2717
2719
2725
2727
2728
2730
2734
2768
2773
2776
2786
2793
2804
2811
2815
2822
2823
2838
2847
2873
2880
2902
2918
2931
2937
2947
2948
2949
2952
2964
2969
2991
2992
2993
2995
2996
2998
2999
3000
3006
3027
3031
3033
3050
3067
3084
3088
3112
3113
3115
3116
3117
3119
3123
3124
3125
3128
3129
3133
3142
3153
3193
3198
3199
3201
3218
3272
3276
3284
3298
3320
3324
3345
3346
3349
3351
3354
3355
3371
3374
3403
3404
3409
3410
3411
3446
3454
3455
3457
3460
3461
3465
3467
3470
3471
3473
3475
3477
3478
3480
3486
3487
3489
3491
3501
3519
3521
3522
3531
3533
3535
3536
3537
3539
3541
3542
3543
3546
3575
3580
3584
3585
3586
3589
3590
3592
3593
3594
3596
3598
3599
3603
3604
3608
3610
3611
3612
3613
3615
3616
3619
3626
3627
3628
3629
3630
3634
3638
3639
3640
3645
3658
3664
3669
3671
3673
3677
3678
3683
3685
3689
3692
3694
3695
3698
3699
3714
3715
3725
3727
3738
3739
3742
3747
3753
3760
3761
3765
3768
3772
3773
3774
3783
3789
3793
3821
3826
3830
3842
3847
3862
3864
3873
3874
3875
3880
3881
3892
3897
3902
3906
3921
3922
3926
3929
3930
3931
3960
3965
3966
3968
3973
3982
3984
3986
3999
4007
4012
4016
4017
4019
4023
4024
4027
4028
4032
4034
4037
4041
4047
4050
4057
4066
4069
4070
4071
4073
4074
4075
4076
4077
4078
4079
4081
4082
4083
4089
4090
4095
4096
4099
4103
4104
4106
4107
4109
4111
4112
4113
4116
4119
4122
4123
4124
4135
4136
4142
4144
4147
4148
4150
4151
4155
4157
4159
4161
4162
4164
4165
4166
4167
4168
4169
4170
4174
4175
4178
4179
4180
4182
4184
4187
4190
4193
4195
4198
4200
4201
4203
4204
4205
4208
4211
4212
4213
4218
4221
4226
4229
4234
4235
4238
4242
4246
4263
4271
4272
4274
4275
4276
4279
4280
4281
4282
4283
4285
4287
4291
4304
4311
4312
4315
4316
4320
4321
4322
4325
4327
4337
4339
4341
4342
4372
4373
4385
4386
4387
4388
4391
4392
4396
4416
4417
4423
4424
4425
4427
4429
4432
4437
4438
4439
4444
4447
4449
4453
4459
4460
4461
4462
4465
4466
4471
4480
4482
4485
4497
4500
4511
4517
4519
4523
4526
4527
4533
4535
4539
4545
4549
4553
4556
4566
4578
4584
4587
4588
4589
4590
4591
4592
4599
4603
4612
4631
4658
4703
4708
4713
4731
4759
4760
4768
4769
4771
4784
4786
4788
4792
4800
4806
4818
4819
4822
4823
4824
4826
4827
4828
4830
4832
4835
4840
4842
4843
4846
4848
4850
4851
4887
4895
4896
4899
4900
4915
4917
4949
4998
5002
5009
5017
5022
5025
5027
5028
5060
5067
5072
5103
5104
5115
5116
5151
5152
5155
5160
5164
5171
5200
5208
5221
5222
5226
5234
5236
5239
5242
5243
5244
5266
5270
5272
5274
5286
5289
5298
5300
5305
5309
5311
5317
5340
5345
5355
5377
5380
5381
5422
5424
5461
5466
5481
5484
5488
5489
5491
5494
5532
5534
5538
5546
5547
5550
5571
5581
5592
5598
5600
5605
5611
5673
5697
5702
5703
5708
5709
5712
5715
5717
5718
5719
5722
5724
5738
5747
5749
5753
5755
5760
5768
5799
5807
5808
5814
5816
5817
5826
5831
5843
5845
5849
5855
5860
5861
5864
5872
5874
5877
5878
5885
5887
5915
5920
5921
5922
5939
5940
5941
5946
5953
5959
5962
5968
5969
5972
5979
5982
5995
6001
6011
6024
6025
6028
6032
6033
6038
6039
6043
6046
6057
6058
6065
6066
6071
6073
6075
6079
6080
6092
6093
6094
6095
6096
6097
6098
6099
6103
6107
6108
6110
6112
6113
6115
6118
6136
6141
6142
6143
6144
6145
6146
6151
6152
6154
6156
6160
6162
6164
6168
6176
6178
6180
6181
6184
6185
6186
6187
6191
6192
6194
6195
6198
6200
6201
6202
6203
6204
6214
6215
6216
6217
6221
6227
6228
6230
6232
6233
6237
6238
6241
6242
6244
6247
6262
6268
6270
6279
6290
6298
6316
6329
6333
6346
6355
6362
6369
6375
6386
6390
6403
6445
6452
6461
6465
6470
6477
6485
6493
6504
6526
6528
6533
6534
6535
6542
6543
6551
6558
6563
6589
6601
6605
6627
6634
6637
6638
6640
6646
6650
6669
6686
6695
6697
6702
6708
6709
6713
6714
6717
6718
6721
6726
6727
6734
6742
6750
6751
6752
6759
6760
6768
6774
6784
6785
6787
6789
6790
6792
6796
6798
6800
6804
6805
6807
6840
6851
6853
6857
6858
6860
6864
6870
6880
6881
6886
6909
6924
6925
6927
6932
6966
6970
6976
6987
6988
6990
7003
7012
7017
7020
7021
7059
7063
7068
7070
7071
7072
7074
7079
7082
7085
7090
7092
7093
7096
7100
7104
7106
7108
7109
7113
7117
7148
7162
7182
7190
7197
7202
7217
7221
7226
7247
7259
7266
7278
7291
7295
7300
7305
7308
7312
7358
7360
7363
7364
7365
7366
7368
7370
7372
7375
7379
7388
7390
7393
7394
7401
7408
7411
7412
7416
7432
7446
7462
7473
7479
7480
7486
7490
7501
7512
7517
7518
7521
7525
7529
7536
7553
7561
7569
7570
7573
7577
7613
7619
7627
7630
7632
7634
7645
7647
7648
7650
7654
7656
7658
7659
7667
7670
7685
7694
7695
7697
7699
7700
7712
7748
7750
7752
7753
7767
7773
7776
7779
7780
7781
7795
7796
7816
7820
7827
7831
7837
7845
7873
7877
7893
7904
7916
7940
7945
7973
7974
7998
8017
8024
8037
8106
8111
8113
8128
8130
8133
8134
8135
8167
8168
8172
8174
8176
8177
8179
8180
8181
8184
8234
8238
8303
8329
8332
8342
8351
8420
8430
8431
8439
8452
8483
8484
8485
8486
8487
8488
8489
8490
8501
8503
8517
8545
8546
8552
8589
8602
8614
8615
8616
8617
8618
8619
8632
8659
8661
8675
8676
8677
8685
8694
8695
8698
8714
8726
8727
8729
8730
8731
8747
8784
8787
8804
8832
8835
8838
8841
8843
8844
8855
8872
8873
8874
8875
8876
8881
8888
8893
8899
8934
8935
8938
8970
8972
8973
8974
8977
8983
9007
9017
9067
9080
9085
9095
9120
9130
9147
9175
9179
9181
9182
9183
9185
9186
9193
9194
9196
9197
9199
9200
9203
9213
9219
9235
9255
9260
9285
9309
9311
9327
9334
9335
9337
9348
9349
9350
9351
9355
9358
9359
9364
9389
9391
9393
9434
9437
9438
9439
9440
9447
9449
9457
9460
9475
9484
9485
9498
9499
9503
9514
9528
9534
9581
9599
9600
9601
9602
9606
9608
9610
9611
9612
9613
9614
9638
9639
9640
9641
9643
9644
9645
9646
9647
9672
9673
9674
9675
9676
9679
9699
9700
9701
9702
9712
9713
9716
9717
9718
9731
9732
9770
9771
9773
9775
9776
9777
9778
9779
9788
9856
9857
9858
9859
9860
9861
9862
9864
9865
9866
9869
9879
9880
9881
9883
9884
9885
9886
9888
9893
9896
9903
9926
9951
9952
9974
9987
9988
9996
9998
10008
10015
10016
10023
10024
10040
10045
10046
10047
10048
10049
10050
10051
10071
10074
10103
10105
10134
10150
10151
10158
10160
10163
10165
10183
10184
10191
10192
10193
10208
10209
10210
10217
10218
10219
10231
10272
10286
10288
10295
10302
10304
10306
10310
10312
10313
10315
10318
10340
10350
10351
10353
10366
10368
10385
10386
10429
10430
10435
10436
10437
10455
10456
10457
10461
10472
10473
10475
10477
10502
10503
10504
10509
10510
10524
10531
10532
10534
10535
10539
10551
10553
10555
10592
10593
10594
10599
10614
10618
10620
10623
10645
10649
10650
10682
10684
10689
10691
10692
10695
10699
10702
10703
10704
10705
10706
10707
10732
10733
10734
10735
10736
10737
10738
10741
10742
10760
10767
10778
10779
10780
10781
10784
10786
10790
10828
10843
10847
10850
10853
10854
10860
10869
10873
10905
10919
10971
10995
10996
11020
11021
11022
11029
11041
11049
11053
11094
11110
11111
11112
11113
11114
11116
11117
11135
11137
11139
11165
11168
11186
11196
11204
11205
11206
11246
11247
11276
11288
11289
11292
11323
11329
11359
11366
11367
11368
11370
11371
11372
11383
11387
11390
11407
11412
11414
11415
11416
11418
11419
11420
11421
11438
11440
11486
11522
11523
11524
11525
11526
11527
11545
11546
11552
11589
11590
11591
11592
11595
11596
11601
11602
11604
11629
11632
11640
11651
11652
11653
11654
11658
11659
11665
11677
11679
11681
11711
11713
11714
11715
11718
11719
11732
11761
11762
11763
11773
11782
11783
11799
11800
11801
11803
11805
11811
11812
11877
11879
11880
11887
11936
11943
11944
11945
11946
11961
11962
11963
11964
11965
11966
11967
12009
12013
12030
12040
12041
12042
12043
12044
12045
12052
12053
12055
12056
12102
12104
12107
12108
12115
12118
12119
12122
12123
12124
12125
12126
12127
12128
12137
12138
12139
12140
12150
12151
12152
12153
12155
12170
12171
12174
12175
12176
12177
12178
12179
12196
12212
12213
12214
12215
12216
12217
12218
12219
12220
12221
12222
12227
12238
12239
12240
12241
12242
12243
12255
12258
12260
12264
12265
12266
12267
12268
12270
12271
12272
12273
12274
12279
12280
12281
12288
12289
12290
12291
12308
12311
12313
12320
12321
12322
12349
12352
12353
12355
12372
12373
12374
12375
12395
12405
12406
12407
12408
12409
12439
12440
12442
12466
12472
12474
12476
12477
12480
12491
12496
12498
12499
12526
12527
12529
12532
12533
12535
12555
12568
12584
12595
12602
12604
12617
12627
12629
12640
12643
12645
12649
12650
12660
12663
12664
12667
12682
12695
12700
12706
12707
12708
12709
12710
12712
12713
12714
12726
** Section: sldSec
*Solid Section, elset=ss, material=Material01
,
** Section: voidSec
*Solid Section, elset=vs, material=Material00
,
*End Part
**  
**
** ASSEMBLY
**
*Assembly, name=Assembly
**  
*Instance, name=Part-1-1, part=Part-1
*End Instance
**  
*Nset, nset=Set-1, instance=Part-1-1
 2,
*Nset, nset=Set-2, instance=Part-1-1
   5,   6,   8,   9,  29,  30,  31,  32,  33,  34,  35,  36,  37,  38,  39,  40
  41,  86,  87,  88,  89,  90,  91,  92,  93,  94,  95,  96,  97,  98,  99, 100
 101, 102, 103, 104, 105, 106, 107, 108, 109, 110, 432, 433, 434, 435, 436, 437
 438, 439, 440, 441, 442, 443, 444, 445, 446, 447, 448, 449, 450, 451, 452, 453
 454, 455, 456, 457, 458, 459, 460, 461, 462, 463, 464, 465, 466, 467, 468, 469
 470, 471, 472, 473, 474, 475, 476, 477, 478, 479, 480, 481, 482, 483, 484, 485
 486, 487, 488, 489, 490, 491, 492, 493, 494, 495, 496, 497, 498, 499, 500, 501
 502, 503, 504, 505, 506, 507, 508, 509
*Elset, elset=Set-2, instance=Part-1-1
  1614,  1629,  1707,  1790,  1800,  1812,  2048,  2050,  2078,  2081,  2101,  2110,  2111,  2118,  2121,  2128
  2152,  2156,  2157,  2171,  2177,  2182,  2184,  2222,  2232,  2238,  2252,  2253,  2270,  2273,  2313,  2348
  2473,  3456,  3484,  3575,  3580,  3594,  3601,  3613,  3619,  3629,  3650,  3659,  3670,  3672,  3673,  3677
  3683,  3697,  3702,  3708,  3710,  3713,  3716,  3718,  3719,  3745,  3746,  3748,  3750,  3758,  3764,  3769
  3782,  3792,  3797,  3798,  3802,  3803,  3813,  3818,  3819,  3823,  3824,  3827,  3832,  3838,  3850,  3857
  3867,  3868,  3876,  3890,  3894,  3895,  3900,  3903,  3905,  3907,  3909,  3914,  3920,  3932,  3937,  3951
  3954,  3961,  3963,  3988,  3991,  3994,  3997,  4009,  4013,  4015,  4018,  4021,  4025,  4044,  4056,  4059
  4070,  4074,  4081,  4082,  4090,  4095,  4099,  4106,  4112,  4135,  4136,  4148,  4151,  4157,  4162,  4164
  4167,  4168,  4169,  4173,  4178,  4202,  4210,  4222,  4240,  4300,  4329,  4390,  4508,  4667,  5752,  6057
  6162,  6163,  6167,  6179,  6181,  6191,  6194,  6238,  6253,  6366,  6466,  6473,  6568,  6569,  6570,  6573
  6617,  6775,  6986,  7095,  7110,  7276,  7603,  7612,  7628,  7637,  7648,  7926,  8145,  8181,  8225,  8237
  8759,  8760,  8772,  9224,  9559,  9563,  9859, 10179, 10257, 10350, 10734, 10951, 10953, 11254, 11386, 11505
 12009, 12102, 12104, 12122
*End Assembly
** 
** MATERIALS
** 
*Material, name=Material00
*Density
 1.16e-09,
*Elastic
 2.1e-06, 0.41
*Material, name=Material01
*Density
 1.16e-09,
*Elastic
2100., 0.41
** ----------------------------------------------------------------
** 
** STEP: Step-1
** 
*Step, name=Step-1, nlgeom=NO
*Static
1., 1., 1e-05, 1.
** 
** BOUNDARY CONDITIONS
** 
** Name: BC-1 Type: Displacement/Rotation
*Boundary
Set-2, 1, 1
Set-2, 2, 2
Set-2, 3, 3
Set-2, 4, 4
Set-2, 5, 5
Set-2, 6, 6
** 
** LOADS
** 
** Name: Load-1   Type: Concentrated force
*Cload
Set-1, 2, -10.
** 
** OUTPUT REQUESTS
** 
*Restart, write, frequency=0
** 
** FIELD OUTPUT: SEDensity
** 
*Output, field
*Node Output
U, 
*Element Output, directions=YES
ELEDEN, EVOL, S
** 
** FIELD OUTPUT: F-Output-1
** 
*Output, field, variable=PRESELECT
** 
** HISTORY OUTPUT: ExtWork
** 
*Output, history
*Energy Output
ALLWK, 
** 
** HISTORY OUTPUT: H-Output-1
** 
*Output, history, variable=PRESELECT
*End Step
